##TITLE=Unknown A
##JCAMP-DX=4.24
##DATA TYPE=NMR SPECTRUM
##ORIGIN=NMR Analyzer teaching set
##OWNER=public domain
##.OBSERVE FREQUENCY=400.0000
##.OBSERVE NUCLEUS=^1H
##.SOLVENT NAME=CDCl3
##XUNITS=PPM
##YUNITS=ARBITRARY UNITS
##FIRSTX=12.000000
##LASTX=0.000732
##NPOINTS=16384
##XFACTOR=1.0
##YFACTOR=4.01979882E-02
##FIRSTY=7.769686E+01
##XYDATA=(X++(Y..Y))
12.0000 1933 2175 100 -1147 -1639 47 -1533 -2156
11.9941 299 200 820 -1371 8 -97 -2259 807
11.9883 481 3585 305 -217 1850 298 1364 -548
11.9824 327 1537 1045 193 -1624 668 115 1081
11.9766 325 1633 -77 303 1000 -1631 -603 -750
11.9707 2972 -139 979 929 -421 -2327 1448 -611
11.9648 1077 -1958 -657 1886 2147 -1954 -2000 -66
11.9590 1093 241 456 -1484 880 1676 -654 -2151
11.9531 -1138 1143 -2601 -138 -1487 -197 -367 24
11.9473 2252 631 2001 -212 -720 568 -4255 -60
11.9414 240 -1853 697 -839 -3690 -320 -1469 -781
11.9355 -228 1877 155 -43 584 -2719 1861 -1616
11.9297 659 -1691 -1465 -595 2844 1047 -906 -427
11.9238 -1727 -51 -860 1083 -2036 -502 -1263 -1078
11.9180 1067 190 878 1784 1725 -2058 806 -2643
11.9121 -96 2880 -290 -554 256 27 40 -1136
11.9062 1623 1334 -318 472 988 1549 589 1043
11.9004 -395 -1604 -743 1529 1467 220 -851 462
11.8945 2496 2032 -1026 -65 -2178 -1704 283 37
11.8887 1448 1902 1253 1980 -821 -1694 751 4019
11.8828 535 -1728 364 2139 -1552 1205 -917 1910
11.8770 1179 456 3001 -613 -1029 2783 -1315 3299
11.8711 -60 -1555 -3 196 302 -288 1622 -3481
11.8652 -832 -393 2730 -2990 -510 -1715 -997 961
11.8594 617 2161 -899 403 1761 1356 -504 1693
11.8535 -1386 2706 232 -169 406 1274 2613 -213
11.8477 -551 880 -1308 -2545 1254 -569 1691 -1540
11.8418 -4345 425 233 2401 789 464 880 -551
11.8359 116 -2028 779 -1208 -669 1050 1374 -1511
11.8301 3007 -888 1253 1427 336 258 2697 1336
11.8242 668 -2737 -1121 1745 291 -1433 -964 -459
11.8184 1029 581 1497 -1226 1479 -753 -448 2600
11.8125 111 -209 -315 -577 2340 2065 1076 276
11.8066 1564 -117 679 603 134 2473 2634 1986
11.8008 -2870 2755 1054 -676 -37 1708 1763 1283
11.7949 211 54 1248 -137 -1347 -935 -209 499
11.7891 3397 -2055 716 -137 452 2031 1863 -236
11.7832 -837 -2045 -107 1871 -398 1056 1062 596
11.7773 1627 -170 -1244 -1759 1391 -543 -467 1252
11.7715 -1184 2656 1000 -790 -951 1623 -1776 -962
11.7656 9 304 23 581 -546 -182 1898 969
11.7598 -675 2573 -2987 127 1003 1459 168 -577
11.7539 879 -290 712 -4286 572 -1186 1412 1122
11.7480 1094 -607 651 -513 323 -203 -1307 2966
11.7422 1086 -3086 1341 -2092 -348 -873 -802 361
11.7363 -488 -2173 -9 548 2655 -622 -1784 -571
11.7305 980 -1326 -1082 832 -17 333 -944 -1239
11.7246 -486 -231 -501 647 821 822 719 -1329
11.7188 -1679 1203 19 183 -1740 -317 -957 -1297
11.7129 -945 -2242 128 1749 -1062 142 -1639 1008
11.7070 2796 -1851 -341 2136 552 172 -3066 -226
11.7012 1378 2155 962 -870 -1030 -2729 -1614 1684
11.6953 -172 -2009 1979 -2510 1892 -485 509 1020
11.6895 394 1908 24 -490 -993 -2168 -1042 1474
11.6836 1238 2088 4093 1070 752 -1973 -364 3295
11.6777 795 -207 464 -2844 -1252 -1965 -3208 1154
11.6719 1449 -265 520 -1511 680 1145 2303 2342
11.6660 732 -191 -1239 -909 926 849 28 2497
11.6602 973 25 -287 116 -1424 -1470 522 -877
11.6543 -407 1831 -290 1971 -13 2276 697 -2638
11.6484 1858 -311 -2947 170 233 -1937 -911 821
11.6426 2119 1712 1835 1681 -3728 -1090 281 -4034
11.6367 1156 1338 -1163 -571 -1409 -27 -61 -11
11.6309 -1533 581 -511 1426 470 -2227 -2165 105
11.6250 -728 705 1210 30 -2529 -1793 859 -1576
11.6191 1664 -136 780 -1326 -150 -4443 -312 862
11.6133 -1346 -1264 -80 97 -1212 1014 -2469 1672
11.6074 -2106 -1235 1998 -1492 -2480 114 -1380 -1675
11.6016 -1052 -1116 -1463 -1543 2419 -1009 1457 -2108
11.5957 817 -1876 -688 954 -796 -2948 -829 -236
11.5898 860 -1498 -448 94 -2474 -160 -1243 657
11.5840 -165 -250 -3623 -163 -556 -1416 -766 -1896
11.5781 262 990 896 -780 2521 1282 -1423 -209
11.5723 -2445 -177 1069 1904 -628 -2684 -255 2042
11.5664 216 1913 1242 2341 898 -997 669 3807
11.5605 -777 -2785 3157 613 -940 -911 -2311 1056
11.5547 215 -950 -635 -642 1601 -274 2070 -1257
11.5488 -918 -724 -808 -136 1539 1815 -1609 1918
11.5430 143 2384 -252 -1256 1184 935 -688 33
11.5371 196 467 -2573 -1809 83 390 -787 -2641
11.5312 2016 -462 -1570 2393 1699 1557 1253 854
11.5254 -1461 46 533 950 713 -1512 -908 -498
11.5195 -293 -1311 -2736 -1825 461 -16 870 -2832
11.5137 -624 1336 -2944 -1625 -2499 1817 46 -861
11.5078 225 -135 1358 1754 1372 515 1145 1219
11.5020 1748 -2756 519 118 239 -374 -111 742
11.4961 299 192 -1610 -1885 -1122 -2674 -775 -1274
11.4902 -2695 -2909 -705 -870 3262 1296 -1173 -749
11.4844 -1517 -1182 -526 -74 -935 1234 967 2935
11.4785 -1964 1015 -562 -2410 -452 -2465 -41 4107
11.4727 1958 2732 1792 -2323 621 214 652 -1558
11.4668 -2974 3157 1789 461 -737 274 -1861 1440
11.4609 248 -226 -645 -100 198 -604 1444 315
11.4551 -142 -1293 1827 1946 1034 -2766 -523 1489
11.4492 56 1914 -658 1195 787 -3671 -609 -356
11.4434 -941 -1340 2385 -180 1185 -2009 -3118 -710
11.4375 611 -1085 796 1204 -673 -90 -1107 1621
11.4316 2654 745 -758 -1058 -418 1335 -1136 2219
11.4258 -1834 -12 1977 2676 -611 1189 3796 1753
11.4199 -3288 422 3565 -1743 1370 -3132 2382 -1265
11.4141 1212 1368 -4174 -2147 495 -2285 -30 -1421
11.4082 2015 -764 -1372 964 1834 -235 420 739
11.4023 -741 -1782 799 -530 -2053 1283 652 212
11.3965 -1131 -334 915 728 -1238 -1354 514 276
11.3906 1273 -1738 1383 2646 1424 197 1360 -1931
11.3848 -665 3090 -2452 -1737 1235 -985 -848 -1680
11.3789 2524 -913 -416 -2720 1155 -13 748 2372
11.3730 230 -1788 -1521 124 1982 -1799 -370 -218
11.3672 986 -1337 468 1176 -57 -147 929 872
11.3613 1888 -1619 1846 -343 -1709 -830 -1851 -301
11.3555 1552 -3376 -1774 1153 -452 1189 -1992 -79
11.3496 -3910 -1270 1110 1824 2448 -84 -1317 -579
11.3438 -2878 2033 1767 -1365 2748 -2030 840 -1213
11.3379 -2608 594 -1738 1791 -1350 158 -719 203
11.3320 -949 1231 916 105 -190 2958 -1044 -659
11.3262 1159 -16 -2452 -213 -576 -1492 292 -1706
11.3203 -376 -1704 2343 -424 663 429 1059 -226
11.3145 1131 188 -3670 469 -1939 1425 328 -559
11.3086 -3785 -3208 -1766 -569 -2070 2977 688 -133
11.3027 -1480 -510 -356 -664 -117 1207 -2642 339
11.2969 1653 -2054 -284 -574 -1716 1425 -490 1718
11.2910 617 -419 431 -564 -2462 2134 549 1735
11.2852 -2718 1571 1237 -62 -3182 151 -1002 -290
11.2793 83 -1358 -196 17 2191 -152 3528 -1775
11.2734 -206 1860 -2358 929 593 -904 -361 2321
11.2676 -673 418 649 1812 -3102 -2209 -2013 -420
11.2617 921 1248 -430 2273 -111 1036 -1140 1250
11.2559 -1079 1739 1294 2805 -638 -1743 1245 476
11.2500 -794 -2008 1200 -2926 -699 1605 -378 688
11.2441 736 891 1588 981 -563 -1847 -428 -986
11.2383 607 1846 1174 -1045 302 8 -706 1950
11.2324 923 542 -1834 -3942 -1101 1710 -322 -37
11.2266 -395 721 -13 2572 -182 -394 2131 1126
11.2207 1044 791 -58 476 805 160 -2819 2067
11.2148 -721 -853 -513 -1084 -1316 -126 1327 -443
11.2090 709 -2028 1133 -1706 1050 -1112 -901 -1885
11.2031 -1905 -335 -1463 -334 1705 -1266 -476 -152
11.1973 -930 -50 349 1564 -1092 -324 -242 1828
11.1914 -1503 255 1153 880 -1063 -1552 -2778 -802
11.1855 -382 -2247 1264 245 -360 -796 711 -429
11.1797 760 -721 1586 -2444 -1608 2701 1567 2462
11.1738 -1189 1093 1501 1372 -275 2208 623 -1944
11.1680 3697 190 1885 -1041 -1401 1324 1233 -1118
11.1621 370 -1993 -3085 1639 -1718 1114 1599 556
11.1562 2277 545 440 2 630 529 -1406 -71
11.1504 -563 4266 1841 -1184 893 -2630 83 2726
11.1445 123 1925 -552 688 561 -3295 -1203 2844
11.1387 -1249 1807 2579 -68 1506 549 -892 878
11.1328 653 -1480 -668 -2023 -506 -61 -1470 -2799
11.1270 1011 1901 -1366 108 -1004 -3954 3172 434
11.1211 -2111 1903 1086 2121 1099 796 2155 -412
11.1152 359 -1630 -1719 315 349 -2379 560 1517
11.1094 -1885 -510 2573 -1275 858 1179 268 219
11.1035 851 431 225 -2214 367 -1182 2246 3327
11.0977 1671 -3227 1498 178 -1633 -1825 1590 -972
11.0918 -120 98 1414 -4016 1846 -1217 -609 927
11.0859 550 -3469 904 -230 -1547 -920 -2396 1175
11.0801 2216 -946 -706 -2187 -1060 -1530 34 2609
11.0742 1580 1467 -1458 1253 -1080 -1330 1099 -152
11.0684 3729 286 -460 1121 -1740 1021 2344 -205
11.0625 -772 1688 -1679 561 -790 450 -1180 909
11.0566 843 2633 -548 663 -2644 -1181 400 -2054
11.0508 -161 -1348 719 900 -709 985 -835 172
11.0449 783 836 890 2548 -970 -233 -2746 1309
11.0391 -1684 -893 -768 625 -424 -426 117 -503
11.0332 -34 -1473 -827 -1828 1284 1354 996 501
11.0273 -906 833 -2324 -3754 -1783 2244 368 2330
11.0215 -1070 1518 2388 1486 428 1619 -685 2648
11.0156 -1732 -1139 34 -1150 2631 1008 -1099 2515
11.0098 2036 -569 2345 1779 -754 -838 467 1724
11.0039 2357 2257 -726 -2679 -2533 2267 1587 1776
10.9980 -4 128 730 693 123 -1457 -2056 233
10.9922 -237 2127 -1601 -2981 -2950 -53 2516 -517
10.9863 -1052 568 2313 1630 1319 1397 -436 130
10.9805 620 2722 -3310 -820 558 -364 -193 -399
10.9746 -1433 757 1945 -540 660 1666 -985 -136
10.9688 -1956 2372 2581 -302 2998 1286 -2747 734
10.9629 377 760 1025 -681 1705 473 2846 -169
10.9570 -3762 2869 833 -2759 -913 -1194 1404 -945
10.9512 1744 -759 1442 -917 -1792 888 -350 778
10.9453 -2478 -1558 -521 2957 600 -2524 -4726 2790
10.9395 499 -1900 1482 1282 3222 292 -745 1230
10.9336 -2029 -672 -1500 -858 -1932 -2173 -1667 586
10.9277 46 -115 708 1127 717 3111 428 575
10.9219 -733 1632 2148 -4457 1228 -1649 528 127
10.9160 -1892 -2034 -385 3940 -1862 -610 -435 -401
10.9102 1688 3089 -68 622 -489 2365 -83 1029
10.9043 -291 1692 -99 -1267 2869 -2923 259 -533
10.8984 -1368 3137 509 -620 -1334 507 -6 -362
10.8926 -999 2289 328 -282 -1882 -1167 1101 -1130
10.8867 981 -168 595 523 -656 -397 -103 987
10.8809 3614 1309 -1968 3331 -177 -1042 188 -84
10.8750 382 -44 -39 1901 2548 147 2384 1403
10.8691 1794 402 312 1199 -1443 86 -1700 1371
10.8633 320 894 -505 -1154 1443 -647 -320 53
10.8574 700 91 -1562 -1574 1526 -472 -362 -1328
10.8516 1400 703 -811 -2585 2707 -842 -1747 -738
10.8457 -1710 -12 -831 -1780 1023 -1283 -2788 511
10.8398 -824 -1633 -2503 -1054 -907 -726 -755 1899
10.8340 1591 472 849 -685 -2185 800 2067 -1045
10.8281 -1039 -1050 -1986 825 -1629 2065 2500 129
10.8223 -64 -1282 1357 128 -2235 -1402 704 -746
10.8164 661 373 2156 -148 1591 1660 1986 -517
10.8105 420 3820 -292 -908 181 -1768 -1280 -642
10.8047 -425 1508 -1646 -276 393 -439 1113 3353
10.7988 -1620 -1304 -768 -816 -813 633 2617 3698
10.7930 -120 -3082 2343 22 -620 1649 -171 -337
10.7871 -1312 1384 1268 -1278 -841 1860 -1079 -626
10.7812 -1152 -359 1291 92 1495 902 -3032 -22
10.7754 -33 -2496 1174 -76 -757 779 1444 1084
10.7695 -789 -56 3675 -1945 109 50 2253 922
10.7637 333 -444 1862 105 -145 253 1032 57
10.7578 387 1194 -1084 -357 107 1027 840 -722
10.7520 -1549 -561 -750 1337 955 96 -1617 -1959
10.7461 185 917 565 -380 856 -2956 1722 2257
10.7402 262 361 -311 1343 -1372 -865 598 -2136
10.7344 739 687 -18 -745 2621 -804 232 1210
10.7285 -21 1573 3 384 -11 988 -970 1336
10.7227 1551 -1564 -2244 -1991 -1196 1034 98 2824
10.7168 2367 -2298 -583 -452 2410 1176 1391 -1219
10.7109 3047 -1656 43 -1443 -1345 379 -1345 1030
10.7051 779 84 956 1689 1637 -1708 980 1340
10.6992 -563 -580 1811 991 198 2151 1398 2602
10.6934 -582 1476 -2976 -966 2506 -1453 -227 -521
10.6875 718 1711 2404 -225 505 1314 1737 -417
10.6816 2034 -2157 418 -2065 -693 -1185 2658 2509
10.6758 1168 243 -2931 -2548 280 1095 771 -1091
10.6699 -1161 811 3407 1094 -57 -166 663 464
10.6641 -2143 2315 684 836 -675 1662 1519 -1088
10.6582 1541 -1068 -2767 1257 -1488 -828 -1402 -110
10.6523 -538 240 707 2446 685 763 736 1220
10.6465 1351 432 -1743 -1436 431 -474 -614 -779
10.6406 -1077 1641 1174 -1903 284 -26 -693 1571
10.6348 480 111 -1286 1426 372 425 -1034 2241
10.6289 -4640 -2083 -2492 -1935 -1541 -760 -498 293
10.6230 2030 847 186 -228 567 1210 -1098 2624
10.6172 -19 1283 -3671 287 -587 2044 1521 479
10.6113 943 -464 -1356 1715 -1801 -787 -1747 -1419
10.6055 -616 1254 -1455 1100 -2787 -1248 -1300 998
10.5996 1982 -3467 109 2427 37 2466 1733 428
10.5938 -2106 -990 2317 -1330 -1623 -679 1897 158
10.5879 -2284 -941 1014 1724 2288 769 700 -1450
10.5820 -844 -2043 -213 609 71 -1408 857 1376
10.5762 1855 -3231 -3620 -1630 806 1545 1094 58
10.5703 375 -368 -1012 -1478 4754 -372 836 819
10.5645 1341 -72 1399 2996 -954 -865 -1493 -531
10.5586 -1836 496 1002 1817 1930 -558 286 -1189
10.5527 96 141 750 -88 -1595 1498 -201 -2072
10.5469 -2560 1022 -2665 1010 2264 799 1217 853
10.5410 -891 331 -2788 926 960 224 1621 -250
10.5352 -2549 2116 150 -914 -773 -546 308 -1888
10.5293 165 -524 975 -474 950 -1312 532 -447
10.5234 1591 559 1521 -710 -898 -42 -1531 -404
10.5176 1879 -1597 -844 119 2431 3173 -821 -688
10.5117 392 -971 -2945 876 557 423 814 279
10.5059 -932 938 -48 249 -1624 132 -74 -1273
10.5000 -1135 -635 18 -928 -1626 109 -1802 478
10.4941 -1275 -294 1657 -3298 -1987 -772 -217 -1299
10.4883 -1399 -916 -1495 147 -1025 -238 57 1001
10.4824 -933 -630 623 -3197 82 -1336 1290 -486
10.4766 -1302 1542 -819 -1302 672 -2863 -257 1039
10.4707 -1858 1396 -450 -817 -2474 2081 1978 -509
10.4648 540 -2820 96 546 -1131 -952 -305 -1213
10.4590 -2496 1099 1280 849 1059 1521 -478 -4403
10.4531 18 -837 -1730 723 -1511 -1775 3533 -598
10.4473 227 852 872 -166 743 -150 -681 -403
10.4414 902 1008 634 -2248 -334 743 -585 720
10.4355 165 1751 -3386 240 1565 990 -765 -330
10.4297 -523 628 1090 -861 1564 675 -3082 -569
10.4238 -197 -1000 127 -82 -143 -416 412 -880
10.4180 805 -2629 98 -718 -572 414 -941 -4711
10.4121 -2158 -310 -414 -722 -961 1005 6 -1545
10.4062 -1279 1396 151 530 23 307 -803 -1450
10.4004 -1444 -1300 2598 921 78 -168 -2384 1119
10.3945 -2564 1507 -744 -2076 2163 -1455 -402 -238
10.3887 -2199 647 -1968 -288 -1682 2336 62 2143
10.3828 -785 330 786 95 -403 1648 552 94
10.3770 1208 -4026 -1534 710 -541 -407 -2180 -541
10.3711 2023 -739 -1481 -429 1553 -961 -2417 343
10.3652 -518 213 -2521 -1641 -460 494 2571 2013
10.3594 1675 1405 1533 940 931 -581 -728 1930
10.3535 -1722 -857 -337 272 -998 -680 -1171 -1105
10.3477 -579 4929 -1737 3596 -1836 259 -110 921
10.3418 -450 -1592 -819 -486 -2196 -138 136 -2219
10.3359 -1955 1176 -1402 -977 -877 -937 783 328
10.3301 3124 -541 541 -1029 1403 -2247 -1232 -326
10.3242 4108 3263 2927 -22 -2287 811 1586 -1000
10.3184 2900 2904 -2499 -604 -394 -382 -226 55
10.3125 -382 3811 -697 -1808 1739 1477 -1685 -1315
10.3066 -1300 -3186 -1950 670 -1966 -372 -416 -874
10.3008 701 255 1841 506 -892 2473 450 728
10.2949 432 -486 -1383 1833 -1091 -454 1306 1475
10.2891 35 2954 -325 3474 2042 281 -343 1667
10.2832 -2516 1061 1015 2355 2087 453 710 -1422
10.2773 819 -1141 -2022 2607 2643 -160 461 3555
10.2715 -2003 2257 -459 946 -111 2297 1805 -233
10.2656 1782 1422 2103 -1557 1298 15 387 -2300
10.2598 3206 -79 685 -2190 -293 273 189 -1647
10.2539 528 -598 1347 -1689 1761 -1530 -1664 706
10.2480 911 648 -837 -426 -1357 1673 -2631 -1782
10.2422 -1740 777 -2219 1187 -2547 -2569 493 608
10.2363 -548 2003 -649 -770 -271 2000 -255 2813
10.2305 2055 1627 1359 1947 721 -3523 273 -193
10.2246 -1748 -2794 210 -1638 2 -1227 502 -1448
10.2188 351 -65 -687 -393 403 -3962 -2875 145
10.2129 38 357 507 -1457 1937 1130 510 -365
10.2070 -1064 -889 565 154 1233 361 -663 1741
10.2012 -2123 -2012 569 -722 -2134 -2206 1 2040
10.1953 2123 -157 -388 -1235 2828 -133 -561 1141
10.1895 1718 52 1841 -1878 670 893 616 987
10.1836 265 861 -3142 -1091 1278 -1655 -1325 3001
10.1777 102 409 562 2591 -395 -1233 403 2099
10.1719 -2660 -193 -590 209 983 466 -2350 -351
10.1660 -197 -73 1589 -484 -949 -246 43 1041
10.1602 -2575 -2035 -123 1386 -85 355 2609 173
10.1543 437 -62 1458 765 -377 1064 672 -717
10.1484 1112 3068 -1633 -1596 -168 -299 359 -50
10.1426 241 1687 1918 -3124 818 46 811 82
10.1367 541 -325 -958 -241 1214 61 -105 1874
10.1309 1294 -1314 -1187 -252 730 1551 -2541 1997
10.1250 89 330 1242 418 293 1480 1768 -1655
10.1191 -2360 -1569 399 -379 -297 -738 -1262 793
10.1133 -61 448 805 2207 3172 -871 1928 279
10.1074 663 1695 -873 -187 1462 901 2722 934
10.1016 199 -167 901 -2721 1934 493 -920 146
10.0957 813 -1761 1340 -3243 2172 -416 379 -389
10.0898 -893 1450 -1432 -110 810 -1809 926 -1333
10.0840 1314 -503 1938 -83 -1498 1456 1796 1416
10.0781 -2197 -1593 1391 717 -455 -274 255 -3212
10.0723 -1795 -1811 1553 -565 -3132 -235 -536 -1082
10.0664 -2169 -1365 441 -657 1139 1985 -515 -2371
10.0605 -1473 100 1115 -283 -77 327 1813 1064
10.0547 -550 -900 -57 -915 -1481 1538 282 -1623
10.0488 608 -1583 -1463 -2435 -1781 -740 360 -161
10.0430 406 48 -696 1729 -1675 -1531 3036 326
10.0371 307 3915 -1640 2387 -75 -314 -1497 -114
10.0312 1089 -45 -734 569 1865 55 -651 -612
10.0254 556 -907 2073 -861 1584 -289 1079 -1738
10.0195 -337 -1505 -1192 -85 -1778 2922 2499 1339
10.0137 0 -892 -2583 1204 -1784 -99 -921 -22
10.0078 2488 -145 -307 1352 -797 -2925 -1168 -392
10.0020 -1189 1459 1769 -1533 46 299 -644 -980
9.9961 634 -621 2694 -63 -4 267 312 -655
9.9902 853 1207 313 592 -2084 -666 114 -505
9.9844 1609 537 -53 -1023 -599 -410 2453 -1814
9.9785 1372 -580 2403 1373 -1298 501 -2117 1039
9.9727 -220 -1590 -89 854 3631 1252 548 -114
9.9668 -3366 -2226 -3541 -1829 1462 1893 402 -622
9.9609 1028 3484 220 2066 2011 -1245 183 -1251
9.9551 479 -664 -1407 1023 -113 -379 1280 654
9.9492 1838 2729 -1877 694 -2657 1330 2876 -1452
9.9434 1800 1006 565 -3304 -1586 -584 86 172
9.9375 1199 183 -282 -1496 -1153 -310 3328 -563
9.9316 -130 1472 1187 925 130 2413 -876 2109
9.9258 2318 390 -808 -944 395 -2972 1917 -1289
9.9199 -1845 743 99 -1303 1960 -1764 -867 -2378
9.9141 2607 869 -2158 752 -920 -1278 -265 -2951
9.9082 282 -10 2230 -1320 -2097 -1438 -884 1246
9.9023 3334 870 637 -1693 -2125 -1817 980 1686
9.8965 -334 -1955 1142 -168 -1120 -2355 -2756 2257
9.8906 -719 443 719 1316 3320 -273 1788 -1305
9.8848 -2151 -45 -2947 -2291 -1170 933 -352 -2685
9.8789 -59 -883 -793 -883 -174 1139 756 42
9.8730 -1262 -2358 2845 2260 -2560 558 592 158
9.8672 267 -621 2136 512 1495 422 294 -677
9.8613 1811 -2751 2045 -323 383 -796 -2736 -1375
9.8555 611 -688 718 -1330 -2672 -210 -655 -1161
9.8496 2142 -2727 173 -447 1955 187 520 375
9.8438 323 -339 -249 1256 3312 -1494 358 -1623
9.8379 2864 2597 357 2118 319 -1763 2669 -2338
9.8320 -1571 1759 1321 891 -565 -1062 -1771 1811
9.8262 822 3291 675 825 -816 -714 758 -1194
9.8203 1555 1600 -1884 924 378 320 -507 1733
9.8145 323 973 576 -957 -1739 2491 2581 -34
9.8086 1620 1972 2267 1448 -172 1042 -743 372
9.8027 -1393 -2420 -1345 -2319 633 1016 696 -1138
9.7969 -37 -1940 628 856 2865 -1499 -221 -152
9.7910 3516 372 699 -2214 -197 3277 2053 1015
9.7852 -546 -1336 374 -898 3390 -820 -712 1138
9.7793 383 -1321 -1953 -1214 2366 -847 -226 1382
9.7734 2415 1231 598 -883 -1362 242 -75 358
9.7676 -3046 -2062 1196 2211 268 -1838 910 -1285
9.7617 -408 -388 1145 1634 932 -1423 1601 -709
9.7559 -2218 1405 2834 -1543 -562 -880 -692 1787
9.7500 1232 285 270 -1109 -762 -1024 904 1005
9.7441 -523 1092 -1249 3120 -1569 -796 -110 1236
9.7383 413 -1288 880 1196 -1652 -3161 873 -1520
9.7324 1533 2726 1923 488 1289 -233 -1268 -184
9.7266 -621 365 -1724 -1571 149 158 76 1402
9.7207 -2171 947 -383 -49 1613 194 1337 2377
9.7148 -68 -2708 -764 -689 324 -1197 215 364
9.7090 -2884 2375 -886 -2018 -1171 1100 4678 -2984
9.7031 -1002 1728 -1008 83 -646 -46 437 -1464
9.6973 -1477 -2154 333 3630 1724 -142 1926 940
9.6914 -457 -948 214 -1202 -40 632 -1848 -1713
9.6855 -439 -1203 -146 478 519 1026 113 426
9.6797 -171 126 -111 -2 -498 458 1218 1972
9.6738 2345 1151 -909 -1945 -2356 -461 284 1505
9.6680 137 16 -1793 1050 2800 -617 3164 1103
9.6621 -1231 945 355 554 -1796 560 1328 -1776
9.6562 722 1886 487 -1021 -305 1118 834 -147
9.6504 -957 -1051 -278 -1745 577 2917 -308 -73
9.6445 179 895 -391 804 -1257 -1625 -882 750
9.6387 -961 -1093 338 -2978 -674 -3485 -929 2777
9.6328 -2459 1655 -912 -829 -559 2906 -859 91
9.6270 -726 -400 1080 437 161 -1012 281 -325
9.6211 -72 119 -788 -1918 592 -2695 1318 -862
9.6152 -1375 1528 -980 87 -1363 615 472 -396
9.6094 -341 -2323 1668 -1001 -213 -739 344 -349
9.6035 -571 -461 299 2269 -1700 1525 126 662
9.5977 -1018 1461 1105 -2800 -2591 2482 -883 -370
9.5918 -2264 -52 62 -754 1886 -329 1230 38
9.5859 248 -436 -856 2092 1662 1714 -1004 -632
9.5801 216 -542 889 2391 -840 -627 -2275 1821
9.5742 255 485 -1013 10 -462 -1024 771 1921
9.5684 1831 -475 4534 -977 20 -1960 -422 438
9.5625 -928 -167 -1460 -653 -1841 -686 -3196 -1266
9.5566 -708 -249 1845 -1639 -1095 1201 -1383 -570
9.5508 -2570 -4651 3172 1082 2986 -187 -2155 505
9.5449 -1418 302 559 836 -1209 174 536 1985
9.5391 -578 2776 916 566 -926 476 908 -1492
9.5332 939 383 -409 -1223 -315 983 2521 198
9.5273 -513 998 1405 1094 -256 -3628 255 -115
9.5215 -1729 44 -1507 -482 1809 -885 -3541 1508
9.5156 -190 -21 -2713 -2783 -572 -822 213 -344
9.5098 463 -662 510 -790 693 909 -2303 -57
9.5039 -574 -45 2709 -935 -278 309 -3245 2078
9.4980 875 -261 1344 3892 -1223 1966 2530 -1211
9.4922 692 -1947 390 -1027 856 -588 1838 1798
9.4863 2528 -136 -463 -453 -926 -166 -1490 -390
9.4805 1196 1451 612 -2296 2242 2716 1287 -586
9.4746 966 -136 -2330 1687 1289 773 1033 64
9.4688 -1758 2235 -473 -474 730 -2424 -323 868
9.4629 -335 -3518 258 1318 -1939 3405 276 92
9.4570 693 1521 401 -87 540 -1750 2983 -2461
9.4512 -228 -1115 196 -124 1545 -117 -389 3084
9.4453 -1481 14 -532 1471 21 1813 -1081 460
9.4395 860 32 458 -2311 757 -393 2807 -1397
9.4336 -2194 3017 2886 -294 -2845 -1063 453 661
9.4277 1486 1770 956 -244 2038 2367 564 -542
9.4219 1185 253 -26 181 1741 2255 1525 646
9.4160 -496 -2322 -293 749 -1267 635 -1182 401
9.4102 -4012 631 1083 54 1029 -1434 129 -595
9.4043 106 -7 254 -1097 -646 -2634 -363 -3716
9.3984 505 2890 -705 -643 130 641 1100 -772
9.3926 -438 628 626 -1807 751 2565 -2592 -603
9.3867 -436 -1533 -1965 2489 292 631 1444 -1775
9.3809 1841 -926 1594 -7 2048 862 -16 1497
9.3750 -903 982 -2016 -211 2866 1364 -1412 2006
9.3691 -431 622 -512 942 -743 2101 -425 -881
9.3633 -575 -1995 1035 1684 2066 773 -197 1992
9.3574 2171 -896 -1820 -697 23 1687 1647 588
9.3516 1739 -352 -119 -3237 -724 -318 1786 -111
9.3457 -485 236 -486 -2866 -940 -192 -264 -936
9.3398 -635 909 -2142 -365 -842 -323 101 1052
9.3340 -3855 -253 -1661 -2465 283 180 -1041 -300
9.3281 -1206 2111 2561 1712 -1718 1051 519 142
9.3223 -193 -369 -847 -981 -1162 3559 838 -973
9.3164 -940 829 2710 2542 -1386 -1929 -911 472
9.3105 -767 -825 3092 -1869 1023 -208 -853 2864
9.3047 -1872 418 -232 -1005 -610 145 3870 760
9.2988 -365 -2060 351 1205 4193 -2318 -2126 -2655
9.2930 -2281 1776 -146 -1051 223 -119 -201 1739
9.2871 1293 -530 1857 1525 -365 -664 -555 -1379
9.2812 -3137 1696 2041 -3587 -439 -1416 -581 592
9.2754 1635 744 1065 1672 418 1724 1346 -1003
9.2695 1130 -579 1558 1762 -2039 902 -1413 -762
9.2637 -687 797 1010 -55 -3074 766 1729 -3907
9.2578 -877 -859 374 -408 1529 -579 -1318 -2893
9.2520 -2761 -329 946 -1519 962 -600 1299 1964
9.2461 695 -1381 1561 300 90 573 1035 1755
9.2402 -1946 1840 384 2005 -141 1218 1454 1997
9.2344 -442 2192 -719 -1766 -1191 -1933 2114 1483
9.2285 -2736 -317 396 332 -778 -1023 1277 -121
9.2227 -1314 416 -967 -375 1163 -296 3800 -2104
9.2168 -1455 2351 322 -245 1452 -269 -1435 2295
9.2109 175 307 278 -56 -1260 -1483 -2462 1347
9.2051 135 -304 -2187 -2005 -593 497 -244 -123
9.1992 -1314 1178 437 1943 795 -1498 -938 -255
9.1934 1693 89 -7 2120 1329 973 -2612 -269
9.1875 2981 1011 1907 2764 1194 -2919 557 -281
9.1816 -1298 1535 -1077 1924 694 -736 -1253 2767
9.1758 -299 542 -24 -1250 -479 -277 -2525 -1093
9.1699 -1342 487 226 -1817 -917 146 -1219 -2543
9.1641 1289 3 -496 -697 508 -626 64 1658
9.1582 2109 2486 -1489 -60 -1911 -1594 -2080 -593
9.1523 -670 -1459 -146 763 -762 -1248 1151 -347
9.1465 329 -1582 838 1235 -1560 -1613 -617 879
9.1406 1119 1671 -1377 -2919 -1342 87 642 -2031
9.1348 -85 -541 667 -1344 -279 -513 371 1
9.1289 572 291 1218 -1448 5102 2075 -2059 958
9.1230 -736 -1198 1794 -3484 -1184 754 -2505 1322
9.1172 -694 -9 2203 142 1528 2054 -837 -606
9.1113 2032 928 2255 3565 -1330 -115 695 -1961
9.1055 -1437 -2222 -429 133 2491 3891 -234 -231
9.0996 426 571 -89 2185 1754 -862 -3390 20
9.0938 2185 2353 -686 -860 103 -925 -1395 -910
9.0879 2756 2206 480 1349 -777 -902 1050 711
9.0820 -1945 1903 -3256 -947 1801 2158 4272 -382
9.0762 -211 658 143 -1609 -434 -524 1467 -337
9.0703 182 -40 -460 1625 -699 754 1877 -233
9.0645 1674 -702 485 -2095 1505 1769 -35 -2383
9.0586 -473 26 1904 -3457 405 180 -2231 1017
9.0527 -2632 867 1473 -1380 -1606 -1439 -698 733
9.0469 984 -621 839 -1607 -176 -2635 2126 -1919
9.0410 -1333 2514 1464 -1575 1384 4125 447 -1408
9.0352 -900 2603 -781 -1225 3795 -2515 -1229 -2551
9.0293 -1051 -730 700 -2221 1017 -943 2142 -869
9.0234 9 -2885 -2755 798 3091 -2524 -434 -313
9.0176 54 993 929 1131 -3866 -2374 3276 1862
9.0117 -2579 -784 659 -1237 -724 -2368 -1625 3000
9.0059 165 -151 906 -1175 502 -138 989 -1499
9.0000 -289 1721 801 -1369 -2994 856 570 -891
8.9941 -1515 -109 360 940 693 587 -1010 542
8.9883 -103 -654 247 3824 -864 -410 120 -250
8.9824 -279 771 -1430 889 1517 -882 3046 -2236
8.9766 683 197 465 -1163 -2130 499 -2703 1330
8.9707 1155 195 1076 441 361 -32 -1013 -286
8.9648 -49 -896 -71 -1815 594 -141 -3259 -485
8.9590 -1567 -207 2500 -1303 303 -1502 -573 1079
8.9531 595 -99 1403 1594 3101 -2788 -2307 -1880
8.9473 -1183 1364 110 -923 -465 -1507 1351 397
8.9414 -153 -2686 -959 -2205 -885 943 -1295 959
8.9355 -1438 2773 -263 -819 1149 1267 -1505 -1751
8.9297 -1767 870 -988 -769 471 -1297 570 617
8.9238 -1015 -1366 1726 -2540 284 2596 -792 -1759
8.9180 916 -25 -1350 743 -258 2062 1057 -1351
8.9121 1023 571 -317 -1633 1100 324 -1299 -249
8.9062 402 1414 2403 2010 -732 1522 -1624 -215
8.9004 766 -410 -873 33 2174 874 -1246 2125
8.8945 -410 31 305 169 -1359 -698 -328 1225
8.8887 -2731 1247 2173 -1761 -20 -760 -1930 2010
8.8828 698 2309 2138 1740 -60 1158 708 -160
8.8770 1014 -739 -155 824 1369 519 -1222 445
8.8711 3157 137 1160 -1766 560 647 -917 86
8.8652 -207 1035 272 -2212 964 3520 -2116 -1617
8.8594 -796 -1473 -1555 300 3259 1490 -284 421
8.8535 1172 897 -387 -1723 -1588 2851 1078 495
8.8477 1258 -1125 -599 132 -1986 -1385 389 -625
8.8418 -2488 -1196 517 -416 2007 2572 -1164 1062
8.8359 -111 -1047 1163 1531 -2596 -2361 1737 1286
8.8301 1409 1398 -966 -1222 -1222 954 1287 -2622
8.8242 -2361 749 -1488 635 -1474 -1430 -1650 455
8.8184 871 -1029 -578 -592 443 -62 172 -889
8.8125 -77 -120 -202 386 -1838 983 1884 206
8.8066 -2483 1763 -280 217 189 3054 -1487 131
8.8008 -484 1140 1243 1488 528 638 672 875
8.7949 785 -616 3602 703 -3965 258 396 -1643
8.7891 -42 21 -971 534 -2149 2044 -2628 -2436
8.7832 345 -2919 1396 1137 1144 -2334 668 -1439
8.7773 1253 1321 -2317 -1049 -2153 2370 1782 -1743
8.7715 -153 -4536 1170 755 -1467 561 -721 -1443
8.7656 -256 251 1658 515 -479 976 597 74
8.7598 730 1540 197 1653 -33 -594 -1745 -1821
8.7539 3968 -2710 173 413 -1117 -1511 1675 -1126
8.7480 98 -201 -980 186 242 528 1410 -501
8.7422 754 -2475 454 -1189 185 -1642 2078 -906
8.7363 2976 -2225 -880 1101 2837 51 -665 -605
8.7305 -2579 -2497 4112 -2073 -592 974 835 17
8.7246 -96 2105 3451 136 -1768 -2376 -393 1784
8.7188 621 -372 754 402 274 899 860 171
8.7129 -1226 486 -1673 583 -522 -1902 3551 -658
8.7070 1466 -1083 70 1645 -1800 95 2077 -827
8.7012 790 -335 -751 -907 138 16 -658 695
8.6953 -206 390 1113 209 -267 -1700 -585 -3286
8.6895 -1996 9 435 1327 -25 -2634 607 776
8.6836 -1589 390 -2266 -1980 14 671 1104 683
8.6777 -523 559 697 -1235 5 1226 1573 -1411
8.6719 282 -720 760 1331 -792 183 200 577
8.6660 779 383 49 1270 -4425 -3291 -1534 -763
8.6602 -544 471 -885 -1394 -812 -1265 317 1314
8.6543 696 961 947 -292 -2794 -1976 -1082 761
8.6484 625 500 1523 -737 -201 398 -203 -779
8.6426 -2515 17 962 -2808 -41 873 963 891
8.6367 -540 832 1123 1076 -704 384 277 -585
8.6309 -1133 955 -1637 1288 -2026 -208 -74 -660
8.6250 1784 -393 27 -1001 -2541 436 -790 1745
8.6191 1280 -1321 -2299 -350 1027 -551 2433 -395
8.6133 -718 571 -92 1531 -414 -1469 584 205
8.6074 567 -227 2722 -1905 -1689 -1413 1729 -2269
8.6016 -579 -2445 986 -522 -2116 1345 -616 -1389
8.5957 463 -8 322 784 -1880 3003 2572 -139
8.5898 -3033 1652 -922 1618 -284 -1361 -884 -3222
8.5840 -1528 2090 2951 1419 -1381 282 638 -171
8.5781 -3715 -361 -841 816 -2141 581 -309 3588
8.5723 2267 -1330 -1551 -272 119 1391 -1315 288
8.5664 -227 -28 880 -2373 157 -667 -151 1058
8.5605 -3531 -1525 -1784 2219 2170 542 -1072 902
8.5547 -1524 -2461 1406 -624 -1658 -95 1808 629
8.5488 -157 -3365 448 1862 283 -961 -282 1533
8.5430 -1235 -2636 -538 1973 3585 -882 707 -1378
8.5371 -529 -1636 -1409 -130 2497 -119 -364 -102
8.5312 -1321 2667 2624 1683 -592 229 -2621 484
8.5254 1666 541 -596 -1491 -565 1972 -726 -207
8.5195 2299 -1839 -3293 -714 -290 -263 2077 -796
8.5137 183 257 18 -1469 1504 1653 -2637 -951
8.5078 -1315 -983 -2185 4103 521 -164 2533 -136
8.5020 -36 2624 -1244 -1706 881 -919 791 -1773
8.4961 -2892 2787 1776 914 297 -450 1168 -1416
8.4902 -1223 -425 94 -830 -1430 134 -975 -301
8.4844 -244 -66 -1411 -1419 808 1029 -2657 1023
8.4785 2006 -105 310 -1409 2989 -2066 2079 -89
8.4727 904 526 349 2028 -919 1309 65 -671
8.4668 1076 200 -675 -883 1656 -804 -1708 -543
8.4609 1979 806 -2020 -1219 -1580 2718 -2280 1185
8.4551 1980 19 851 -402 276 4 -1859 2086
8.4492 435 2157 352 -1064 1552 -1253 -1263 744
8.4434 1354 2503 420 -934 793 299 -1110 883
8.4375 2352 -986 1551 2765 3683 -924 -2159 3
8.4316 796 -525 1237 -19 -655 906 -684 -2335
8.4258 140 1042 2717 -90 -324 2726 -460 -1523
8.4199 2285 -890 -618 3246 -1668 2024 -1540 96
8.4141 536 1720 -1284 -242 205 1858 -1666 871
8.4082 249 -3454 -2027 -160 837 566 -1456 1194
8.4023 445 1778 -67 -2379 1234 -1625 32 -2145
8.3965 1684 1310 -547 -1126 406 -1377 1893 -2422
8.3906 -2356 1263 22 975 389 -501 -1018 -2245
8.3848 -1152 55 1468 315 -1365 972 348 1180
8.3789 92 829 -1584 2612 1305 -1340 -913 -1847
8.3730 -1431 -810 -669 -1289 -417 994 -1952 1527
8.3672 2529 619 691 -2161 -437 -684 -498 672
8.3613 -1633 -7 -3469 2551 -2605 1504 -426 929
8.3555 -1146 994 -651 -42 -2546 -2980 2086 1783
8.3496 -532 500 526 -3912 -409 -2663 1553 -2304
8.3438 -1686 357 2188 1236 3097 -2068 1576 -536
8.3379 49 -1475 569 -786 920 373 -178 924
8.3320 -2473 40 -3282 -576 120 178 -817 2160
8.3262 132 303 -784 3103 -201 896 -535 1707
8.3203 618 -2138 1089 -1222 237 958 1939 659
8.3145 -661 1244 -334 302 -695 536 1809 2627
8.3086 972 2092 -1339 335 1776 -331 926 -497
8.3027 -1073 -302 169 -515 230 3621 -1634 -366
8.2969 -2084 3552 1721 -296 -798 61 -860 438
8.2910 -1356 -543 1573 -1597 761 -2193 72 1725
8.2852 -873 1375 2618 1412 3505 -761 273 413
8.2793 -2899 506 -1663 -1370 385 106 1569 -679
8.2734 -1627 433 -1382 658 977 746 88 703
8.2676 -2003 950 2089 -1399 370 -1229 -557 -601
8.2617 -499 1196 -3741 -2276 968 221 -2346 532
8.2559 574 -897 3502 74 1214 1016 -12 824
8.2500 -550 -1691 -971 975 2500 -1665 2720 930
8.2441 561 927 -2076 260 -692 -205 2519 -316
8.2383 -3061 -2627 2001 -28 -1968 848 -21 -376
8.2324 -537 -1627 -648 -469 1792 515 -866 2581
8.2266 1919 -373 1019 -547 -785 1099 -261 295
8.2207 -1577 776 1425 -243 -74 3848 21 -554
8.2148 -75 1247 184 -1237 2082 -1090 1947 -2159
8.2090 -857 -1633 843 -538 -1643 -795 -428 1862
8.2031 332 2167 1462 1892 -2590 -2798 -1579 -1752
8.1973 -2049 -1605 -1936 -3366 1911 -1690 569 188
8.1914 687 -3147 1094 2650 1580 49 84 3255
8.1855 1105 944 1128 -1692 1116 -1446 1091 732
8.1797 -1137 -1243 1927 -53 -1857 831 -980 969
8.1738 -405 1457 1395 -358 841 -1285 -3054 1477
8.1680 -488 -1252 2101 2573 -1002 2377 1087 -957
8.1621 -398 466 10 -797 -249 -322 1536 1893
8.1562 -39 430 773 799 1027 -106 549 836
8.1504 -901 931 -1386 -924 -2180 -1096 -265 -272
8.1445 1395 1706 -1034 -84 1637 -1215 -1780 -275
8.1387 2029 -1205 -254 -2290 -1565 -608 -2853 -1559
8.1328 -653 -282 -807 2483 80 1015 1080 2263
8.1270 66 -3150 -1884 -2084 255 2136 -2290 176
8.1211 720 -481 2063 -447 1210 1089 -1783 -3311
8.1152 731 -2008 150 -1126 743 -553 -437 -356
8.1094 402 -495 1139 -2019 -1262 -160 -866 -1671
8.1035 -843 -997 1062 1412 -285 -878 327 -2050
8.0977 568 3 -3280 -837 2873 894 -1109 -1485
8.0918 -1878 488 281 -40 -379 483 861 369
8.0859 -1762 -877 775 2095 1626 -597 -1710 2421
8.0801 1476 -928 2391 1807 -906 -234 582 -350
8.0742 -996 3068 -1417 -1344 -1911 -458 -1410 -786
8.0684 70 -1612 409 -1805 -1081 -680 -351 2841
8.0625 2095 -3944 2958 640 -362 -1702 2607 -965
8.0566 -295 -2366 -1876 -3238 -1417 -754 71 1870
8.0508 2015 994 -54 2271 154 -1356 1276 -731
8.0449 2713 2942 -688 1371 1730 969 1583 -249
8.0391 -1535 1205 273 -2060 35 -802 2885 -4103
8.0332 2140 242 1527 535 -1572 2285 -1251 2397
8.0273 -1214 -3621 -318 -2070 224 978 -1985 1658
8.0215 -313 -1172 1179 1898 214 -2041 1883 891
8.0156 -1698 -809 70 1765 -1790 583 3026 2595
8.0098 -1075 2119 -767 745 1354 930 1947 1652
8.0039 1141 -58 -1268 -114 2028 255 -618 -1342
7.9980 -1608 741 -1617 540 -100 2455 451 -1916
7.9922 698 317 -563 501 -320 2917 1154 754
7.9863 -1751 1412 2293 -958 -1322 -1694 -945 686
7.9805 -669 -1320 2244 220 -569 -136 -589 405
7.9746 448 -3272 1605 -462 -1263 867 1202 196
7.9688 284 -1708 -2265 1275 435 869 -874 860
7.9629 3369 -1563 -1480 -458 2600 3403 -634 2080
7.9570 -326 -193 -1238 -184 -3519 275 -159 -2600
7.9512 22 -1475 -514 -1672 1033 -2406 -1099 605
7.9453 1017 -941 -616 941 2678 -991 721 486
7.9395 -809 1840 1701 -4 -1410 1244 178 1823
7.9336 -3182 -1035 -1285 737 189 -49 1197 -1543
7.9277 -1209 -499 845 -2992 1465 -1524 317 1577
7.9219 865 1741 -224 -1242 1344 -1036 220 -1822
7.9160 2212 -2000 -709 -856 2672 1268 -999 1949
7.9102 -814 -673 134 -880 225 -461 -1868 2359
7.9043 -942 -864 1578 421 2472 -260 889 1706
7.8984 821 -2113 -2404 25 -308 826 -912 -1604
7.8926 -368 -2758 78 -1587 202 4140 -2302 2669
7.8867 -1422 1897 -1507 1677 -1192 -1950 1878 520
7.8809 1600 -854 -506 446 102 2 311 651
7.8750 -1256 1286 -1307 941 -1415 -1122 -240 1697
7.8691 910 2003 2167 -101 3114 1654 566 908
7.8633 -678 2857 395 -267 -135 -101 -80 -224
7.8574 1381 -849 523 1361 808 1102 -529 -485
7.8516 784 -1922 -836 1332 -157 -888 -1686 -10
7.8457 458 -422 443 1984 722 875 196 2963
7.8398 -1171 1397 -896 -434 670 138 -2525 1579
7.8340 678 -1646 65 507 1297 2324 -813 -1371
7.8281 -1152 -287 16 -3207 435 -1812 -309 1059
7.8223 -1287 -378 -2310 -852 -1610 976 -2673 -1912
7.8164 320 -1826 1681 306 193 657 -1971 781
7.8105 1593 -729 -2388 -803 -2140 733 890 2355
7.8047 -1235 -1737 -2427 -1876 2741 130 -733 -1289
7.7988 602 -1675 -290 1917 215 -1908 -1402 434
7.7930 -399 311 1302 520 -238 -1647 -409 78
7.7871 964 -158 -1438 2989 -1080 3362 -126 -1128
7.7812 -262 -837 1538 -1278 -1225 -2791 -503 507
7.7754 -582 -1466 -2454 1270 155 923 -1724 -1180
7.7695 -683 144 -2449 1753 23 -978 -833 -1772
7.7637 1317 -509 -1544 -1052 760 -1853 118 1476
7.7578 -894 -773 2000 3247 220 -1012 -530 783
7.7520 1244 -27 2136 1891 -155 -207 -200 819
7.7461 -1802 -984 -734 -228 -557 -840 -1899 -1880
7.7402 -418 -2000 982 1967 1368 3486 564 -459
7.7344 -2879 -1638 -13 108 -1544 -1812 914 -890
7.7285 -1481 -372 -330 737 1504 -1394 897 1407
7.7227 -495 444 -715 271 1384 3311 1759 -2110
7.7168 -57 -1262 -1451 1821 -1382 -2529 38 -1868
7.7109 -1732 -2190 -1061 491 -3205 -700 -753 -805
7.7051 -1376 -2318 -1386 -2249 2394 813 2793 -1036
7.6992 -148 -499 -266 -442 410 -21 -1787 2329
7.6934 461 827 1050 2535 -274 -352 -1574 -1340
7.6875 -2132 -2200 -752 -1582 -1305 -1343 256 3999
7.6816 43 716 -425 834 1494 -1015 -1060 918
7.6758 1186 -689 -1571 648 -146 -885 2168 874
7.6699 -924 1713 851 169 927 2654 -1299 -1072
7.6641 78 521 -675 -594 -1897 574 53 -43
7.6582 2000 601 2099 1048 -2584 1822 607 -2209
7.6523 587 -1233 1192 894 -825 1852 1226 3940
7.6465 2319 -99 -1222 -1594 -429 1174 -888 -27
7.6406 1614 2882 -2008 -892 -714 -1814 -2449 1046
7.6348 654 -164 -1744 739 -1662 -172 -151 -2217
7.6289 680 -1834 1517 3982 -775 -2882 -1487 3331
7.6230 555 510 1812 606 -1961 2513 2508 1963
7.6172 1249 478 -2574 1065 -754 203 -721 -144
7.6113 -2894 -1926 1384 776 -634 -33 -2242 2856
7.6055 964 1712 -2171 10 884 -1552 310 -3421
7.5996 16 -1683 671 2539 190 503 -42 246
7.5938 -1528 586 -510 -889 945 -855 2400 1419
7.5879 -2161 -421 437 800 360 1529 -45 2587
7.5820 1093 1573 1236 -514 279 -3447 381 -2468
7.5762 254 2107 1006 376 -700 -1419 393 11
7.5703 -800 -1871 521 -1528 -337 -3457 864 1137
7.5645 1543 -2001 -2626 -1101 1900 -269 -324 1742
7.5586 -298 1215 -529 -86 1358 489 1336 1172
7.5527 -364 2333 3998 1458 -734 1180 460 -4067
7.5469 -2532 157 1401 634 -2763 529 -1368 834
7.5410 -1734 485 1555 879 -732 688 -302 -284
7.5352 2717 3414 -1618 2155 2910 -526 188 -639
7.5293 677 -885 284 -11 -741 -1420 -133 1364
7.5234 -124 -613 -36 -1186 -3272 1651 2815 -29
7.5176 718 -1255 -1876 -1727 204 2353 1010 1988
7.5117 3624 -961 578 -795 -747 -789 -2088 1253
7.5059 1388 1768 -2766 596 -2417 -1688 2541 -903
7.5000 -165 -669 207 500 -945 -455 -623 1359
7.4941 590 1099 -566 3048 103 750 788 -265
7.4883 1263 -596 -1647 -1150 1491 -1058 1350 861
7.4824 -971 1554 -3968 -1029 -1221 -150 -1317 -138
7.4766 410 555 -459 -728 219 1255 -2878 1538
7.4707 -179 2103 -2142 -2125 -2185 -2674 -478 181
7.4648 -31 -12 1180 -448 -2153 -15 1082 927
7.4590 -2485 2768 1621 2239 -1163 -2124 618 -1625
7.4531 1830 -473 -304 407 1301 1185 -258 -612
7.4473 2257 912 202 99 -3452 -2337 -2887 -2513
7.4414 286 2370 -1443 -511 -2013 -1138 1244 1868
7.4355 283 -423 3345 623 -839 -1415 2288 511
7.4297 422 -1411 -1545 -2040 1778 433 830 1895
7.4238 -151 739 -851 -441 -1427 -945 79 -1146
7.4180 1349 -1352 886 -2076 731 804 -834 1385
7.4121 -1483 2085 -50 -220 2145 -1155 -2597 -1242
7.4062 1880 171 49 -3187 -1013 3543 -3106 -3109
7.4004 -3075 -1026 -1572 -827 1476 -1764 -1670 -571
7.3945 -1358 241 -1896 1233 2268 1620 360 -954
7.3887 -604 -1948 -448 -275 1061 -41 3164 -3178
7.3828 365 -1413 461 155 232 -3053 1846 -1686
7.3770 -530 3019 -2038 -1113 2333 1773 -972 1374
7.3711 -201 -1551 -882 -3064 320 -136 -21 -4230
7.3652 1475 -1665 250 564 -2032 -1430 -264 -224
7.3594 1070 2741 1404 565 -192 1559 2764 -1510
7.3535 -544 170 98 362 -2439 1509 -872 348
7.3477 238 618 -483 -1337 2003 -1060 -1883 -354
7.3418 1213 58 -226 277 1577 -88 -1525 1643
7.3359 714 -1512 -570 -2409 1877 1560 241 -3067
7.3301 347 1330 -2127 981 84 -511 1076 722
7.3242 2580 -861 -402 479 -562 1522 1006 1677
7.3184 -976 -207 1309 -278 -1624 -1139 -4173 2639
7.3125 -815 -1214 -1325 -621 -279 1381 419 -710
7.3066 -1225 -302 432 -512 -1389 111 -2210 1682
7.3008 -338 -534 3336 -607 809 320 -3359 -1850
7.2949 231 518 -771 610 -1095 881 -791 -485
7.2891 -2906 1925 256 2453 -1458 1461 2685 137
7.2832 -411 -1165 109 -1179 895 -487 35 -421
7.2773 97 -734 -224 -433 -1035 -1424 -2069 173
7.2715 340 2243 -425 251 3546 -471 1705 494
7.2656 -560 -799 -619 -639 67 286 -2982 -3114
7.2598 -1189 807 -430 744 -1011 2058 -901 -974
7.2539 -2880 871 1758 2861 -273 -1713 2673 -1292
7.2480 791 1938 -2407 1493 1396 1151 2408 682
7.2422 398 1860 -857 -2636 -1189 650 2802 -1784
7.2363 -2584 1840 1016 -617 149 -193 -468 164
7.2305 -2436 -1087 -649 -1785 892 186 2111 -647
7.2246 -221 56 -2750 -868 280 1827 -2151 -138
7.2188 -2358 -1540 2297 -449 -420 -1682 -1206 2075
7.2129 261 1092 -1778 -2629 645 1094 903 487
7.2070 545 -235 47 -2592 -71 1419 1259 1541
7.2012 41 590 -912 -165 1739 691 4927 1377
7.1953 -1867 -694 -1541 221 -613 -401 -722 -2878
7.1895 -2483 -60 51 -2210 -131 2461 -582 2644
7.1836 -519 1714 -2066 -54 422 354 1065 -741
7.1777 2138 -221 -1366 1414 -1574 -5420 2157 -2333
7.1719 2480 -8 -1070 -27 794 -827 -1882 1121
7.1660 342 650 -308 -1580 -392 -2499 1382 -155
7.1602 953 890 879 -189 -126 -1632 871 -2845
7.1543 -1932 22 -296 613 913 652 174 3696
7.1484 2754 789 4053 1656 -509 -1173 -1757 -1703
7.1426 407 -738 2207 -1168 505 -275 2402 -1018
7.1367 1145 2289 -412 -1551 -501 -1060 812 1298
7.1309 579 -767 116 1674 -2556 -2251 -938 -781
7.1250 -1013 2015 3108 -1579 -1092 -546 564 -812
7.1191 974 -737 215 267 -1283 543 -596 -2923
7.1133 -3165 1539 1413 -42 260 503 -103 1353
7.1074 1279 -68 2044 3031 -1742 -1280 619 -1561
7.1016 353 -2037 165 101 31 -269 212 -1425
7.0957 388 -231 3126 1008 782 2440 686 1833
7.0898 587 1752 -266 -1924 840 -996 -2023 -589
7.0840 1951 -1033 1694 248 1313 108 1160 -810
7.0781 -2886 1796 -205 -690 2189 -180 2015 -1951
7.0723 905 -36 279 132 -32 0 28 -807
7.0664 326 -1235 -528 80 38 52 -339 -233
7.0605 1107 995 1787 -389 -1117 -637 320 14
7.0547 -4190 -820 -792 -916 -2486 2860 740 3143
7.0488 -2165 1038 -477 -7 1876 1983 -1529 -1519
7.0430 2707 -1132 -2876 2195 -2026 66 1374 1881
7.0371 -1 529 -566 -117 3787 -1589 8 -877
7.0312 -1449 113 1941 -1650 -871 2833 598 1124
7.0254 1102 204 -35 -600 -770 2632 2872 2054
7.0195 466 2502 -1057 1254 -834 1691 -1512 528
7.0137 -721 -117 -939 -672 -1429 319 1107 777
7.0078 -153 -154 1546 2974 -334 156 -262 -2267
7.0020 -348 -247 351 -1 -941 -1347 1007 -1544
6.9961 -2268 699 2135 1129 1345 -836 -1588 79
6.9902 -1636 1328 -2174 -1024 -440 -539 187 -1875
6.9844 1974 2901 538 2414 -1341 2013 -451 -535
6.9785 -1784 -1224 -3515 159 2145 519 1430 1007
6.9727 1644 2488 -792 1065 789 1844 472 2044
6.9668 -697 -177 424 634 2200 629 -2098 -276
6.9609 -2437 -1396 -1489 -3249 -1075 -2202 -696 -258
6.9551 -1054 -407 -1765 1005 675 1156 875 -2848
6.9492 30 -916 -2004 2177 1351 -1745 2632 -1854
6.9434 877 -3316 -2693 1509 1107 1658 -1210 -1219
6.9375 -266 2136 -1942 -64 50 -1769 -2493 279
6.9316 1741 -1820 1302 -1966 1130 -127 586 697
6.9258 -217 -630 3065 1148 -468 -189 -1676 21
6.9199 1727 265 -505 2377 -2856 384 -788 1967
6.9141 2175 -2876 442 4733 3564 1650 -245 -1215
6.9082 194 -665 74 -810 -554 689 -196 -4087
6.9023 4087 3160 362 1039 -290 -324 -1517 2665
6.8965 -1026 996 -1802 -1506 71 -1683 -553 -1229
6.8906 54 -289 -786 -50 2807 358 35 2504
6.8848 2263 -243 -709 -5116 -2513 -3020 -2277 2259
6.8789 -4315 -672 344 996 -1001 2392 -429 -2672
6.8730 -114 1493 -1160 2564 702 2159 -846 211
6.8672 -932 909 127 1678 -543 -4010 1355 -343
6.8613 1543 -2804 -846 1385 -1035 -2073 -810 -1535
6.8555 -202 -487 -646 155 3315 -1666 537 883
6.8496 664 1088 -2787 2241 767 1876 2122 183
6.8438 -61 -1177 -566 -200 1231 -844 -3724 -1745
6.8379 963 237 -4051 691 279 1297 -1791 147
6.8320 -291 -1137 812 1294 2065 -2185 410 -991
6.8262 -1359 905 -319 -1450 974 9 -424 568
6.8203 1649 398 809 2080 -896 2045 -1019 -34
6.8145 1049 -3041 -1932 -326 -132 3707 153 198
6.8086 127 -2656 -876 -571 374 735 716 1349
6.8027 -63 -34 -2500 -1376 1370 -3153 75 -1042
6.7969 2158 1182 -3120 719 1665 3064 286 -46
6.7910 -2485 1491 -1723 -991 286 620 -2470 -1244
6.7852 -264 -968 -234 -27 1539 -3201 105 -1872
6.7793 560 1672 -1645 1211 -619 -3793 -1161 1214
6.7734 -520 81 -1140 2000 17 777 -858 670
6.7676 -444 1372 901 -800 -162 -850 -1987 -497
6.7617 -1530 218 -50 -229 -890 -895 1535 517
6.7559 -304 155 -214 1093 1424 1833 -1483 1147
6.7500 -730 -2411 137 -1428 -2069 157 -606 353
6.7441 805 450 3670 340 1596 915 -871 -407
6.7383 -1884 -326 792 -534 591 -77 85 69
6.7324 190 -1417 -218 -1974 708 846 -1754 3368
6.7266 1502 -1073 -1227 -1387 1509 -580 -2952 -1620
6.7207 288 407 898 -423 -3573 203 494 1433
6.7148 -1000 1478 2140 -2005 177 971 -187 -188
6.7090 980 1455 -350 -1723 -91 765 1254 589
6.7031 501 1504 -975 625 -3357 -416 -283 276
6.6973 -2 -981 -2114 1426 -388 2325 1043 2067
6.6914 -1319 1836 1964 -184 -1120 1146 -520 569
6.6855 980 344 -1072 -920 -1863 -690 1130 -493
6.6797 -1464 -576 1014 -1030 645 -637 578 1292
6.6738 -630 -1569 -1598 -1622 470 1234 1379 -2054
6.6680 -2888 1393 -1452 586 877 479 321 271
6.6621 94 -113 569 -3184 134 2040 -489 -889
6.6562 178 -314 161 -2095 -240 -766 -3885 1264
6.6504 -1287 2366 233 -484 -555 1581 1064 1662
6.6445 312 1209 -1663 -1034 -278 1186 -3500 -1174
6.6387 688 -564 -1987 -331 4565 -1321 -484 1430
6.6328 103 903 2150 3998 -1082 -298 172 835
6.6270 -170 -566 958 -2090 959 848 1528 103
6.6211 2920 -453 1912 707 1018 1108 783 -783
6.6152 -2100 392 631 4019 -1543 -231 -1872 475
6.6094 -418 2094 -2720 -222 647 -461 -1946 -399
6.6035 -1872 -218 183 353 1325 -1341 -3747 -3178
6.5977 -1429 2788 -1563 -1755 923 0 570 -1653
6.5918 1122 -145 461 1744 554 -1423 -586 -2886
6.5859 187 411 1717 399 945 890 1274 -1588
6.5801 415 -1318 785 3204 637 1033 1648 -1822
6.5742 -267 314 213 902 -627 -816 1504 118
6.5684 2196 -644 2173 -1872 -1737 -1296 -2 -2738
6.5625 305 -421 -2966 2032 442 -1453 -332 932
6.5566 -2208 -1919 415 78 -1472 400 -2726 -795
6.5508 653 -2742 -2022 -1438 1976 -1135 1636 1956
6.5449 -783 -2509 -926 -976 -211 186 -3767 770
6.5391 2831 282 1043 -444 -2357 1608 -677 -541
6.5332 865 455 924 -1694 2094 -982 846 -1160
6.5273 -189 -1041 1694 1136 3157 -4067 -1951 2802
6.5215 1578 -13 -1880 1153 2434 1239 -1451 -1551
6.5156 1383 -1485 -405 883 1378 -324 -648 -1299
6.5098 1335 3879 -840 1709 3159 -1848 826 521
6.5039 -1868 624 437 1258 -2613 1050 -552 1707
6.4980 1720 823 917 955 -2479 2153 -408 -737
6.4922 -50 1128 -349 -1395 -1844 -1673 -564 1689
6.4863 775 -1140 852 -60 -2767 32 1464 303
6.4805 -567 -1501 543 -467 915 -1286 764 -1397
6.4746 -404 360 943 2085 217 938 -304 -2616
6.4688 279 1454 -479 -1322 -675 -478 -1826 -3091
6.4629 374 -1093 45 2681 379 -437 999 -147
6.4570 -2345 980 848 -1013 1488 -561 821 482
6.4512 1067 -268 -1698 2222 -3430 -1686 342 -841
6.4453 -2471 754 27 -4155 1131 203 -238 659
6.4395 805 -609 -1041 248 2566 465 877 -1432
6.4336 -2048 642 -1335 604 611 -195 1616 -1506
6.4277 -560 427 1437 -2120 -909 1202 -3467 285
6.4219 -1732 -2188 647 792 -22 -249 2389 -70
6.4160 1489 -888 -1711 2563 872 549 -694 -1978
6.4102 -2614 -818 -40 2366 2154 1479 1513 -371
6.4043 1085 -1573 934 1377 181 1287 -2334 -822
6.3984 1300 1356 -1890 1462 2087 -4295 248 -329
6.3926 -94 -385 1358 -463 1610 442 -259 -1634
6.3867 -1879 -49 -2060 1417 -12 613 2443 -957
6.3809 -882 2007 2012 720 -457 942 -986 476
6.3750 -30 145 355 1486 -479 1454 -2009 157
6.3691 43 -273 -3245 1090 -2388 1198 287 1404
6.3633 -3388 1407 -1510 -2274 -1983 -675 1034 151
6.3574 -24 -1450 2278 590 1937 840 2858 1840
6.3516 88 649 963 1013 -196 1781 -223 -124
6.3457 101 -1212 1667 1494 -533 2814 1486 -898
6.3398 -1979 -466 738 2297 937 1700 3618 -210
6.3340 2595 1218 -631 3105 911 -432 -1933 1711
6.3281 -2117 2285 -1220 1436 1720 1783 1195 1870
6.3223 821 12 582 1832 2403 780 1166 1234
6.3164 1227 845 -1802 1714 -636 -488 -1256 -73
6.3105 -2163 -1102 -1578 2716 -471 -1914 2198 1312
6.3047 -1934 -2692 902 2416 1495 -610 275 -49
6.2988 997 -2454 2544 -1239 1680 1294 3362 456
6.2930 -2625 -866 -955 -673 2399 -1398 962 140
6.2871 1565 2975 1028 975 -1151 -1880 -729 1887
6.2812 102 473 163 1563 83 824 1684 52
6.2754 -3654 187 1886 2513 -2543 578 -676 -1878
6.2695 -1731 -1383 -2444 1416 2057 -1388 -1198 1226
6.2637 1348 56 1096 798 2819 820 760 -594
6.2578 -472 -1014 -154 -769 2008 -36 1890 480
6.2520 -663 1592 -1102 -2060 -342 1099 -303 1743
6.2461 -804 786 756 -1150 -701 1822 -1035 -538
6.2402 -508 -363 -3612 91 2511 -497 -1320 1362
6.2344 -1663 -858 -2856 -2021 -3402 498 -1146 2529
6.2285 -1056 -118 2842 -1754 -1146 1479 -917 -68
6.2227 1669 -1325 137 -1989 103 367 -636 -730
6.2168 -1302 339 716 -1093 469 983 -1510 851
6.2109 -772 -44 -234 -135 -3006 652 -789 -233
6.2051 1532 125 469 -1116 -1805 2647 -1976 803
6.1992 -1670 117 -2118 83 -625 -306 -891 1397
6.1934 -608 -1356 -443 348 1420 1651 939 119
6.1875 -2185 -2023 1354 -704 -303 -1348 -1487 -271
6.1816 1555 1374 -158 186 588 2456 1719 921
6.1758 -454 592 -682 -591 894 3472 -1639 -312
6.1699 -1487 150 767 92 506 972 -1525 3325
6.1641 942 -1244 1376 1637 -199 1397 344 1332
6.1582 1222 -71 -80 309 -1146 1328 132 -2028
6.1523 501 4462 -1756 -687 732 1566 -931 -299
6.1465 773 1784 -764 1608 -96 -2477 960 2715
6.1406 1365 -2719 352 2135 117 2386 -2957 -1438
6.1348 -1175 -1049 1065 -1619 -1603 1533 -474 -2491
6.1289 826 -433 -650 582 652 -357 -1844 -336
6.1230 -467 -773 66 551 -234 471 591 592
6.1172 1574 -2031 -1194 902 4324 -1949 672 -598
6.1113 654 1822 -160 1461 1658 455 603 -126
6.1055 159 -3120 686 -776 -50 -47 -11 -1104
6.0996 -205 -993 -1162 208 1330 2083 -244 1471
6.0938 2714 -166 -412 410 -1540 -433 756 5
6.0879 257 728 -1295 -1773 -667 -601 2148 112
6.0820 -326 321 -1238 -1402 1207 1746 -3697 467
6.0762 1501 -49 3601 2581 -1064 368 -717 -558
6.0703 1496 -644 2116 -350 1102 2904 -1456 690
6.0645 1968 1003 1620 2358 -888 398 -530 435
6.0586 -2414 1021 1756 -3594 87 -1970 -206 951
6.0527 2429 684 -11 1758 2385 1442 203 -803
6.0469 825 479 -1571 87 3049 807 1395 -1028
6.0410 268 869 501 2931 -1774 1507 -649 -1962
6.0352 -2152 1552 -551 -2923 1900 -1234 1110 398
6.0293 973 367 463 2048 139 388 -893 2354
6.0234 -1324 -1284 340 -53 -372 -752 1177 1791
6.0176 2845 861 66 993 1101 218 113 834
6.0117 1775 666 -367 159 2100 -1332 360 1920
6.0059 2268 -380 -660 3381 -846 915 2077 1657
6.0000 -1500 -229 -1886 -711 1348 -1622 1834 1542
5.9941 -674 3768 2602 759 737 2003 -1925 -2036
5.9883 2875 -626 2172 679 3348 -625 -883 267
5.9824 2450 -2780 389 728 1096 -110 813 807
5.9766 934 -3 2986 1059 -147 -441 104 127
5.9707 -1817 -2973 237 48 183 386 1644 478
5.9648 1560 -509 -221 1708 1799 -2689 493 -1863
5.9590 -809 -693 131 -1545 2570 369 -350 -1572
5.9531 -244 -1479 563 752 595 1170 463 2263
5.9473 2010 1426 316 -186 1143 -640 -1319 -2309
5.9414 1425 1513 -1406 1982 534 -707 -1391 830
5.9355 691 1243 178 -1163 3792 -787 -853 1117
5.9297 -482 -762 -1067 -557 837 1638 -84 1120
5.9238 -686 -753 -1033 -2013 -1263 -1836 -364 847
5.9180 -89 98 2022 159 146 -4294 -1118 -3426
5.9121 3256 -203 -1827 -3971 1696 991 597 372
5.9062 603 1286 792 -702 -1059 1139 -1538 -473
5.9004 1490 -2289 1596 -939 2092 -1059 35 -1663
5.8945 -1326 -661 -1989 2486 1282 1013 1938 1730
5.8887 393 -1673 -940 246 647 -1301 -29 -1515
5.8828 -375 -42 -593 -95 -2399 -2314 1722 157
5.8770 -1086 2588 601 -702 -543 981 1228 250
5.8711 308 -134 2239 -142 -1981 687 -522 1216
5.8652 1850 1992 2481 -737 -1933 -732 887 -965
5.8594 -574 -732 436 -41 94 -264 -4182 -1484
5.8535 1433 1690 1858 -83 -1123 340 -355 608
5.8477 -1875 1031 -374 168 -2988 -2736 1320 -1328
5.8418 741 36 -3298 2797 -350 -1199 -1295 571
5.8359 -1496 583 1722 1023 -360 1194 2054 909
5.8301 1813 1357 -280 -1822 199 -2579 154 -940
5.8242 2262 -2894 -278 -38 1021 -4000 -1656 -749
5.8184 1394 905 312 1404 837 703 3859 -1730
5.8125 2000 3404 342 1118 1846 -915 -27 463
5.8066 -804 1521 -444 161 -1386 310 -552 825
5.8008 335 -795 2538 -1633 917 -1242 -202 2251
5.7949 -383 -667 381 2427 -806 135 -1675 -672
5.7891 -738 976 30 -891 -1816 1996 100 456
5.7832 -80 1349 494 1124 -1142 -919 677 2231
5.7773 -1436 1804 -1224 68 861 -773 -2045 755
5.7715 158 -1003 -1989 1805 -682 -257 -1950 1665
5.7656 88 551 2076 458 -1537 -1865 457 -2285
5.7598 2787 -445 -735 2419 -90 2189 -1231 -839
5.7539 2929 653 2727 -475 -72 415 180 -1084
5.7480 1744 -1686 -579 -1235 -4557 1359 22 -1469
5.7422 1549 1070 2130 -793 154 -2643 3090 -1306
5.7363 -254 95 -340 173 1286 -277 1033 2516
5.7305 156 -1693 -2177 312 -1488 -2117 -205 -889
5.7246 -1908 -1186 -1737 2395 -499 908 545 520
5.7188 -1958 -728 930 1130 1525 -2123 -1393 394
5.7129 -2015 -612 -1187 -2165 1465 -422 584 -196
5.7070 -1309 -504 1183 1267 -1187 726 1295 520
5.7012 138 467 -782 -969 -1504 -255 420 -138
5.6953 2903 876 274 -2935 -428 -1966 -1575 1366
5.6895 -937 1346 -1834 2023 2170 2107 211 -523
5.6836 329 117 3109 2214 -2656 1728 -958 -579
5.6777 -1083 -173 1644 -70 -226 92 347 -2604
5.6719 647 2204 853 -1000 -71 2923 -2235 -3674
5.6660 -155 -562 -2674 -655 861 1340 1062 -86
5.6602 1462 100 1461 666 -450 -603 -1714 34
5.6543 756 -538 -2738 -1216 -106 1297 1915 -1231
5.6484 563 3797 -2922 -2069 -474 2268 -1533 1095
5.6426 -2727 593 -958 -346 2633 -2783 461 -872
5.6367 -960 2458 493 249 -77 1028 -1934 2188
5.6309 -2309 -3157 -521 147 -865 -562 -820 132
5.6250 419 -279 358 -958 1831 -2266 567 2122
5.6191 48 -794 412 -1608 970 -1734 -962 274
5.6133 -499 421 -1438 1847 -795 1504 -94 1667
5.6074 1038 -966 140 649 2084 -2522 1531 -2050
5.6016 45 -1539 -632 3317 414 1897 -230 1377
5.5957 2148 121 -1434 3095 -452 -1848 645 326
5.5898 -3067 1888 481 -83 1799 -2968 3166 1074
5.5840 -819 1411 1655 89 -550 -1696 -1561 -1979
5.5781 -2206 1533 -1310 -1870 2677 -116 2203 1574
5.5723 -2228 2011 907 1165 904 -1152 -1660 -1496
5.5664 -1859 -1148 -134 -1698 794 -431 -1557 -1644
5.5605 105 525 -1639 1809 -1846 -1140 1964 -437
5.5547 1462 540 -2593 532 -576 -3167 -161 915
5.5488 -2549 -2082 -2887 671 668 665 -31 -930
5.5430 1968 -2923 -361 -1768 -1338 -2205 558 -1421
5.5371 593 -125 -1133 1176 -1496 -460 2456 1887
5.5312 -75 -211 -445 -1824 -2398 1069 -417 295
5.5254 -929 -1268 1965 747 -3356 12 -2187 1048
5.5195 -296 -861 -591 -285 3103 -1670 1321 735
5.5137 894 -700 -1634 -1479 1198 -1090 -430 -871
5.5078 189 703 -2594 1378 -865 -939 765 -150
5.5020 -584 3085 224 -135 -184 -419 1879 -1196
5.4961 -666 -84 1885 -1483 -1271 366 -104 2019
5.4902 537 3479 -1608 -2488 1397 2397 740 -1000
5.4844 1758 3311 -2185 439 1891 -1147 1367 88
5.4785 2370 730 -666 1571 -1814 51 3244 1393
5.4727 801 -231 3259 1140 -1823 1897 63 1148
5.4668 -163 -1415 -2997 185 -1345 15 599 -1433
5.4609 -257 1496 -596 -233 319 1383 826 481
5.4551 -1747 128 -975 -1235 -1594 1887 136 1806
5.4492 1328 2625 -1907 421 423 -197 -271 -332
5.4434 188 779 -866 -498 -370 -739 -1931 1602
5.4375 -3464 1332 1294 -1144 -1852 -485 -1096 -5138
5.4316 322 -1126 726 -1639 1086 -3182 1783 -379
5.4258 689 888 304 1368 -1692 -1227 -1129 2065
5.4199 -657 -3755 -826 -103 -694 970 -3126 2251
5.4141 -1732 450 -1210 527 -1505 -2709 407 -1360
5.4082 976 -452 2370 746 2133 658 -711 -935
5.4023 1169 -808 -593 -316 -937 -371 600 -1408
5.3965 683 2841 278 614 23 2963 1167 -748
5.3906 -650 657 -959 171 -297 1105 -1971 435
5.3848 349 2536 730 -379 1751 -875 372 -2074
5.3789 -1978 659 50 -714 261 -2052 632 215
5.3730 348 1608 -336 -1559 198 492 -725 -417
5.3672 -1356 1714 -79 -1338 1277 -138 1225 -593
5.3613 1069 2778 4866 225 -455 223 1829 -2293
5.3555 -250 1198 1382 -1208 -240 1472 1015 4020
5.3496 -351 -2836 333 239 -412 970 -251 -1915
5.3438 2067 838 1307 -405 2013 1760 -2168 -1341
5.3379 837 -2955 -942 1032 26 -420 -2208 1013
5.3320 -550 3700 -50 33 -1443 -599 -991 2710
5.3262 -2377 1011 -828 -2174 3229 3205 525 153
5.3203 -2794 -301 697 -937 -1392 -1313 -3248 468
5.3145 1289 6 -22 530 -231 -1822 -1358 1720
5.3086 1941 810 -142 -93 -529 663 2973 514
5.3027 -2314 1152 1542 92 199 110 1225 -2483
5.2969 -1244 -115 582 972 -2028 632 1096 -2326
5.2910 -861 -16 437 -451 -121 532 1065 771
5.2852 4107 -615 -199 -158 696 -2814 387 780
5.2793 -3064 -937 1210 -824 1191 2109 675 1031
5.2734 -2552 -440 5 -2097 -186 1213 1711 -1823
5.2676 -47 127 287 -1159 382 -1466 -1444 949
5.2617 2511 821 1608 -113 713 283 -2714 562
5.2559 -1980 879 -1404 1734 1555 -1024 -1073 1863
5.2500 -1565 1185 784 247 -2453 -1415 3588 655
5.2441 187 -575 -1040 -1495 -1859 1647 -602 -4665
5.2383 425 218 -454 -62 -149 529 1581 -1786
5.2324 207 -571 -130 -158 -206 2043 1440 -3885
5.2266 -3184 -471 -962 1678 1999 291 -2059 1214
5.2207 613 -823 889 1519 2528 1545 46 283
5.2148 -961 -371 1266 -1008 -909 -1557 945 1424
5.2090 -1542 -615 -50 -1414 -494 834 -613 -333
5.2031 -939 -1780 239 -1415 -379 1292 61 2623
5.1973 843 538 -664 -1266 961 -1953 835 741
5.1914 -1622 313 877 -1468 -376 -426 1740 1358
5.1855 -713 -1376 176 -356 -1629 -80 861 -249
5.1797 1006 785 -1449 -3293 -1578 -2642 1353 -284
5.1738 -3060 -1767 1543 -2388 335 477 -1450 1586
5.1680 -3475 -669 -2592 554 119 -635 -2397 681
5.1621 1362 -571 -17 -1250 -1017 1951 -33 -278
5.1562 -1261 995 -3078 1146 -1451 1303 2328 1457
5.1504 181 3871 -239 579 3622 -827 1958 2508
5.1445 1013 14 -49 -523 252 -621 -597 1056
5.1387 -1654 -1961 1699 -814 586 1553 -2393 -712
5.1328 -739 -1258 -633 -207 -464 -597 3120 -251
5.1270 2108 2926 -2187 -915 -1914 1267 98 999
5.1211 -2649 749 714 -1405 -95 312 2335 1368
5.1152 -2743 -1364 740 -1034 -1383 -2349 -596 662
5.1094 -83 783 -1404 -2443 -1147 1385 -1533 -2289
5.1035 1939 1628 1188 -226 -2421 -2511 696 2661
5.0977 -651 -62 -1715 1148 -2088 -764 1415 2720
5.0918 -1046 -505 1195 -442 -1001 -1046 -75 111
5.0859 -864 1882 -1441 467 143 -989 -2520 1069
5.0801 -1265 1686 328 323 -1119 -2745 -1061 993
5.0742 -857 -419 1439 813 -846 2276 1525 -328
5.0684 -2011 -1086 2041 -484 -1473 -337 717 771
5.0625 882 91 1212 -356 1617 -1511 2222 718
5.0566 -964 -45 1090 -140 2350 -973 -1896 1894
5.0508 -253 1020 3634 -612 -478 -2579 -1721 -736
5.0449 1178 -129 832 2392 2105 -1426 1527 162
5.0391 2396 1449 1396 -1401 4416 523 429 -3343
5.0332 140 1770 1646 189 1618 -43 -558 -3840
5.0273 779 169 -1707 247 -1467 -1581 -379 -121
5.0215 -943 301 1592 -66 68 -119 1119 419
5.0156 109 50 1823 2058 3542 -145 534 1637
5.0098 1003 -1971 -2787 -2745 -869 -187 -1577 1238
5.0039 -606 1931 -1773 -2813 -41 1614 377 855
4.9980 -2482 29 1273 2249 -440 4780 2163 -210
4.9922 -171 -270 -1524 1059 -523 -755 -1500 1991
4.9863 -442 -96 1542 -1711 546 85 -1200 -1553
4.9805 1867 97 -1848 862 575 744 2409 149
4.9746 -2339 -1422 439 253 1726 2240 1065 -444
4.9688 -1743 -840 1162 3011 -768 1146 1746 -145
4.9629 -1183 -57 -2279 -765 388 -1415 738 539
4.9570 -575 -1174 2446 -1185 270 -270 670 1090
4.9512 -241 72 1124 -2090 -966 -285 -153 878
4.9453 702 1793 -198 518 1086 -1400 613 4220
4.9395 -492 -2993 -889 1751 1896 -2826 -2016 3281
4.9336 -432 803 1348 964 21 30 630 -490
4.9277 -956 -349 2094 -2491 440 -2493 253 1493
4.9219 -377 536 407 2451 1006 686 -900 -299
4.9160 -499 -1221 -1346 1329 -2666 1872 -497 287
4.9102 -1592 -339 -489 1309 325 -165 506 537
4.9043 -986 2012 84 2010 497 -659 -2451 -1795
4.8984 857 -307 -25 3504 2683 -1271 2133 -1035
4.8926 1950 760 -419 1297 749 -1154 -65 -2460
4.8867 2712 752 2503 -1190 1618 1165 343 282
4.8809 4858 1650 -1373 -1102 2436 -1677 -32 -463
4.8750 -2153 3017 -747 774 -1517 3092 2070 455
4.8691 1304 1450 -1334 -1958 357 -182 514 1322
4.8633 553 -2582 544 828 387 -948 -581 -908
4.8574 -2644 1432 -1410 -443 -1184 1829 2528 2806
4.8516 -1177 366 -1237 883 680 -128 839 -1960
4.8457 1976 -339 -564 -1376 -1247 276 -1716 207
4.8398 732 -129 2323 -1256 -1247 2742 2056 2711
4.8340 -862 -2249 1417 -1489 -1704 1183 3106 -415
4.8281 -1621 -1233 -111 -2079 -102 -2470 -1445 119
4.8223 -257 -1250 1446 325 -1227 -1115 -1128 1725
4.8164 1883 1800 -643 322 -1289 318 1787 -983
4.8105 622 -311 5265 -535 20 -1849 -1114 675
4.8047 -661 -725 -162 -2635 1530 485 1026 1945
4.7988 1608 417 -878 417 250 -436 2725 -298
4.7930 1223 -750 247 -1449 35 617 -96 2007
4.7871 -772 -320 -1596 -115 -490 934 1141 852
4.7812 -884 15 662 -1312 1896 1603 1205 -1034
4.7754 3422 -2730 -972 759 734 736 -850 1674
4.7695 2080 -431 -650 1436 1728 -114 -206 -712
4.7637 -1008 -1325 103 2240 1054 -659 -838 806
4.7578 -2472 -719 1223 -2008 -198 -491 3312 -724
4.7520 -1344 -1752 -1731 -667 336 323 2152 1199
4.7461 -2257 1497 689 286 304 792 -914 287
4.7402 1042 -80 1267 2080 -1644 1922 455 73
4.7344 823 -115 767 -2684 237 2985 1338 1716
4.7285 4536 1528 -897 913 371 1659 406 230
4.7227 892 551 -195 -204 1660 -1358 315 -2550
4.7168 209 184 1160 11 924 683 766 1236
4.7109 1112 810 1109 1558 1024 665 -2183 -1791
4.7051 407 291 556 183 2702 669 -1097 652
4.6992 -2545 -508 425 2123 -2050 -327 -2577 -198
4.6934 236 -2052 -1418 676 794 -1192 -65 -2256
4.6875 -1738 -1583 -854 -6 96 161 1463 120
4.6816 -1692 -146 -971 -736 -8 -83 -561 -4399
4.6758 41 1737 202 603 -142 973 -147 -3081
4.6699 558 638 2432 2515 1877 1463 -1055 155
4.6641 516 -1567 -2818 -904 -614 -1580 -2138 -1105
4.6582 378 1394 -82 354 -2834 -2639 2330 -843
4.6523 1210 2253 -2011 -935 -1268 -3453 -703 -1451
4.6465 1911 -619 1246 236 -1294 870 -830 399
4.6406 -2868 -665 217 559 -2202 496 -978 -476
4.6348 -348 -1438 629 329 -2579 2186 -1447 -1236
4.6289 -2692 2147 990 -500 1009 720 -1528 -2404
4.6230 1193 -1408 99 1330 289 2725 -590 -967
4.6172 -3226 -96 1265 1181 -632 -1149 -125 406
4.6113 -1472 -388 -542 -267 59 -66 1478 -2024
4.6055 109 721 -1670 1491 -792 884 461 2111
4.5996 2201 -1731 1395 -655 1286 -308 1334 238
4.5938 -2238 691 -1971 -2002 650 513 2240 14
4.5879 1472 -699 3229 87 1898 324 1983 629
4.5820 -1145 -1293 -157 -1385 3691 401 2510 504
4.5762 -863 -521 67 189 -1358 2978 507 -598
4.5703 -1694 1443 3297 -327 -138 2926 -709 -980
4.5645 170 897 -1006 1233 536 -402 -1760 2559
4.5586 1261 -887 2335 -1299 596 3872 943 -2746
4.5527 8 -1035 2110 2558 2335 -2306 -204 -329
4.5469 829 2246 243 4324 -2297 -193 3110 243
4.5410 4061 982 2956 -597 -980 -1159 -2482 -1451
4.5352 -908 944 325 -3561 -29 856 5537 -1801
4.5293 115 -3104 748 -125 1529 1759 1312 4014
4.5234 1526 -352 -1591 -765 -1216 507 -1804 -829
4.5176 -1173 1182 -685 -488 -678 529 -769 -2780
4.5117 -874 -478 997 -1071 3567 80 641 -1056
4.5059 -177 -2257 308 1347 -118 2456 1698 545
4.5000 128 1974 -328 -1765 -2563 -1048 -2125 -372
4.4941 125 1793 -1204 543 -43 -127 -1898 -757
4.4883 -1263 2055 581 924 -1486 21 1841 537
4.4824 850 86 -356 -2061 1741 28 827 -126
4.4766 -249 -1265 -3965 196 1280 612 326 -505
4.4707 -2210 -2203 2246 2165 2572 -3383 1001 1115
4.4648 -1542 737 -1461 -1444 -4585 2239 1028 -1984
4.4590 1384 237 -208 1555 -342 849 201 2019
4.4531 631 636 683 847 2506 -2928 93 -4488
4.4473 -1375 2268 -1645 1773 1043 -308 -1407 898
4.4414 267 3383 745 -403 1169 1627 1094 1119
4.4355 -1158 -1194 -50 -86 244 -1733 -2567 -1127
4.4297 -1336 -1393 -454 125 50 -2277 793 -484
4.4238 -1172 493 -80 293 -1382 247 -642 88
4.4180 -1894 236 -1506 436 -385 -2449 -1121 2126
4.4121 785 904 -1556 2595 1626 975 -336 -1565
4.4062 -1793 2660 -3836 390 -547 494 -84 -280
4.4004 648 -966 2456 661 -483 -1507 -1094 712
4.3945 -1027 -5 -1581 -1135 333 -96 -1156 -1315
4.3887 -497 -932 212 800 735 1825 619 165
4.3828 168 -18 -142 424 -2706 1156 1440 -995
4.3770 -688 -1627 -1466 -1001 2633 -1551 713 -1061
4.3711 153 -2004 2246 -2037 1130 782 919 -1266
4.3652 151 905 432 -2968 -1563 -421 610 -918
4.3594 1450 -1491 1615 -92 -1503 -2737 1532 -532
4.3535 4 2100 -1094 3232 782 -2239 -601 -305
4.3477 675 -204 1587 2305 -913 -1527 -166 -892
4.3418 1583 -501 -3000 2045 1541 1134 -1628 -1925
4.3359 -1310 -436 -491 1650 -126 -1635 -165 2552
4.3301 -1522 2888 -1859 -231 -206 738 1458 456
4.3242 1158 -1234 325 -676 1368 -217 -1042 987
4.3184 -514 73 -4067 1294 309 -2158 1937 -2874
4.3125 87 -2645 1566 -1994 -3794 933 1103 -592
4.3066 498 -528 323 458 709 152 -207 -606
4.3008 2036 -1724 31 325 -1932 -1891 -1191 49
4.2949 2136 -1219 -880 285 -110 -2053 1372 4247
4.2891 -1255 1063 2315 -30 772 390 3537 -1931
4.2832 1012 258 -628 -574 -763 -277 1668 2488
4.2773 -238 -730 1065 -386 -507 2241 -667 -490
4.2715 -2008 824 -976 -32 -1515 -489 1577 1220
4.2656 975 804 403 -33 -1810 -498 672 -2083
4.2598 -620 3334 -301 35 15 220 -2097 655
4.2539 -742 -544 4184 262 805 2244 -2067 263
4.2480 -927 1253 2560 -537 1090 1649 2744 -964
4.2422 -2175 635 1533 1383 -80 -114 40 1542
4.2363 -289 -372 -1094 797 -2881 615 40 2896
4.2305 -926 -1193 -3104 368 1987 -720 -2230 -1243
4.2246 3168 -1032 1409 107 -855 -915 832 107
4.2188 -2570 182 1421 424 -2507 -4470 -149 -1919
4.2129 315 1610 2059 -371 -328 -1040 -231 461
4.2070 -946 -1299 498 2213 44 404 1000 -584
4.2012 -1630 69 1273 -1210 -204 -325 -1057 -207
4.1953 1076 81 -332 636 -1194 774 1792 395
4.1895 105 1675 1170 1522 1363 -1710 2256 293
4.1836 4029 -2382 1421 -2234 -1974 1263 1232 1487
4.1777 1129 -1817 1724 1500 937 1455 2812 -187
4.1719 468 2907 2311 1429 1995 379 -552 2007
4.1660 2341 1363 1764 1156 1438 507 1362 1408
4.1602 1637 2104 2430 2368 4330 2699 5050 3535
4.1543 4657 2699 6932 8455 10586 12442 18210 22038
4.1484 37353 58859 84806 81683 58871 34628 26058 18317
4.1426 17025 10444 10461 9798 10259 10866 9640 9934
4.1367 12778 12322 16567 15760 24787 28637 42497 63057
4.1309 94575 152992 230248 256642 185637 116055 73956 51958
4.1250 35904 27477 23506 21096 18015 15861 13430 13635
4.1191 12612 17172 16677 20130 24370 30096 40856 58032
4.1133 84241 137821 210883 256559 203691 128086 81425 55513
4.1074 35968 26361 22444 17022 15384 13629 10734 11151
4.1016 12377 7647 8740 6862 13494 14489 16445 23589
4.0957 29132 41790 67327 88569 75330 51458 32195 20304
4.0898 12288 12069 7218 7563 2157 3363 3615 3530
4.0840 3176 2339 3508 2268 1903 3857 3058 3216
4.0781 233 3630 1198 3615 3182 3873 530 1943
4.0723 2089 1409 1531 1590 2682 952 -2835 1972
4.0664 2532 1216 157 1518 2854 -1387 -313 2063
4.0605 -329 1045 47 491 683 1874 131 -646
4.0547 1806 169 814 714 1962 -1248 -338 3496
4.0488 -1903 575 -351 -2520 -1991 -2838 -2065 -381
4.0430 1483 639 -1302 -134 2971 369 -3054 -1481
4.0371 1478 -1305 -513 2741 -1637 2497 -728 -1675
4.0312 2492 -2757 -152 1993 2911 1384 429 -2331
4.0254 331 333 899 -1485 -392 1982 3058 -699
4.0195 1736 1142 202 -1744 -1334 -551 634 941
4.0137 -232 1118 -1754 -1215 166 -427 -142 2419
4.0078 1260 846 266 -1044 -414 989 -890 -44
4.0020 923 -1262 1557 -1196 1642 -2161 -1250 63
3.9961 2464 -810 201 -2094 4691 -2526 1098 -2721
3.9902 -174 1022 4493 -203 2574 -1378 536 -26
3.9844 180 -1013 3039 -732 1660 -255 -153 -776
3.9785 -1634 -1982 -490 -312 1922 2709 -1525 -2319
3.9727 2943 429 -2198 1082 -2942 1170 -2369 547
3.9668 709 1397 -144 -15 -1099 -2632 658 -127
3.9609 -1662 -1872 -259 -3169 1308 1517 -493 -643
3.9551 646 1266 229 -278 2939 -980 1148 712
3.9492 942 1043 -1596 1711 539 1204 1090 -717
3.9434 2205 1540 1092 -1338 1753 30 84 -1073
3.9375 -426 -1024 1221 -612 -2191 129 -2845 -227
3.9316 -1269 2155 164 -2363 331 1663 1102 1867
3.9258 -2532 -80 61 2923 -490 36 -2464 -2427
3.9199 -1815 2434 1035 -1931 554 -902 -457 1530
3.9141 -768 1609 921 -568 1200 -1534 -438 738
3.9082 -136 1814 -5275 417 1530 -1272 -615 2883
3.9023 1181 -3625 -2165 -2630 -1724 1079 -586 -572
3.8965 -2853 -251 -2045 -979 939 1433 -1382 822
3.8906 1221 -1 1780 -397 1384 380 1159 837
3.8848 1909 538 -1531 -1939 251 -2651 -120 -225
3.8789 763 -1699 -2055 626 -56 698 1979 -446
3.8730 -1010 -380 355 1658 -1303 293 1530 557
3.8672 711 -96 -1230 2875 -1811 1627 444 -49
3.8613 2459 -924 789 575 1166 -1760 -967 -106
3.8555 1484 690 -1193 -3277 595 -1533 2163 -168
3.8496 2870 547 757 -2281 2335 1287 -1151 392
3.8438 -1112 -543 -170 1733 -1185 -143 -2176 -266
3.8379 -1019 2254 -359 -372 416 49 1115 1235
3.8320 1004 -2835 2574 1942 1349 1701 -522 954
3.8262 -496 -1390 -453 225 717 -223 2346 3411
3.8203 1 1585 774 -1757 741 -1794 -1398 -145
3.8145 -891 296 -2520 2148 -508 2880 -937 -1371
3.8086 -369 -1330 -505 -1336 774 -237 -66 -182
3.8027 2243 -962 2368 -629 863 -1999 3221 -188
3.7969 -1453 -729 3127 -1532 -160 1208 21 -1596
3.7910 -76 1710 819 528 165 2159 386 422
3.7852 -798 -9 550 -670 1950 -1944 1503 1702
3.7793 1362 -2323 398 1636 -1417 -921 -2186 -1225
3.7734 772 -829 -2763 645 -1389 -2960 -351 -2666
3.7676 2836 -1577 1770 727 -1163 1014 39 -46
3.7617 -1667 -1116 -2143 -637 -87 539 933 3207
3.7559 -843 735 58 352 -383 945 916 1384
3.7500 -872 2792 -1440 621 -1419 -1214 -575 -416
3.7441 -1197 -799 -3793 880 231 -404 -1301 -12
3.7383 362 -1276 523 -2414 -960 -311 2349 -230
3.7324 1273 1426 862 -426 -2495 550 -999 1472
3.7266 -814 1691 -824 -915 2940 2996 1316 -3165
3.7207 2163 -2158 -507 1205 -64 622 -504 5
3.7148 1458 520 -942 810 1205 319 -1179 604
3.7090 -1741 -45 878 682 1629 818 298 -1112
3.7031 481 -653 -53 2143 -718 -2475 -16 3106
3.6973 -3048 180 184 -1396 1410 -158 -293 -875
3.6914 -317 42 -625 1170 -623 -1314 1269 3732
3.6855 -478 -1600 -1475 136 1874 -1068 1195 -2344
3.6797 -1978 -131 341 999 1002 2852 961 352
3.6738 -273 908 -405 2084 563 -646 2139 -672
3.6680 32 1867 1721 1141 2240 -656 157 804
3.6621 -172 -2412 624 466 316 142 -584 -92
3.6562 -1222 -1112 -1776 -1158 1497 1281 -204 1820
3.6504 -760 1734 3846 1051 -1013 170 -1288 -615
3.6445 386 -1384 -3429 -731 761 -1858 777 1704
3.6387 -1248 -4 1224 81 -749 -97 -1003 466
3.6328 389 1232 1161 1543 -1812 -2596 -1568 592
3.6270 -928 -1238 -3383 -134 -1487 2145 -592 -1378
3.6211 -1563 -924 254 1867 1741 -635 3125 1954
3.6152 1949 293 299 -2023 -1228 -1389 -1996 2866
3.6094 576 -2437 -2441 -498 694 450 -590 -1207
3.6035 -842 -1617 -608 3177 435 -3457 -2144 -3678
3.5977 2152 -644 433 -997 2527 52 -1755 -1618
3.5918 -1919 913 -2011 2990 -853 1022 781 485
3.5859 -2173 2130 -1084 561 762 -4734 -743 855
3.5801 396 377 919 -764 712 -5727 2873 -3820
3.5742 357 867 -1159 -1222 344 -1767 -433 -389
3.5684 -2258 1771 1734 1467 3770 582 -1053 -943
3.5625 -647 469 -1984 -619 2377 978 1188 -2878
3.5566 -1754 2554 237 560 22 -504 1492 1527
3.5508 547 883 1712 1845 -1399 -491 -1779 1354
3.5449 -1816 812 2181 -263 843 -80 -102 -749
3.5391 1832 -1081 1450 -285 313 -2405 -934 -52
3.5332 -126 1098 -342 -1663 711 -551 1226 1602
3.5273 -206 1673 2717 3914 -730 2641 1619 1095
3.5215 -413 -741 -2035 -2226 1021 -678 362 -1169
3.5156 -91 -1745 -831 1407 2390 567 2079 571
3.5098 821 955 1172 1057 -1800 -3555 -2493 166
3.5039 2187 -657 -1466 -723 2239 -759 158 2064
3.4980 1098 -2240 -111 801 1211 -2286 -2074 545
3.4922 -593 -1505 -2135 1052 1009 -631 1733 -1474
3.4863 3016 2785 -850 62 -973 835 28 852
3.4805 832 1320 -1303 1350 2976 -168 -2369 1376
3.4746 3558 -1152 701 -450 -230 253 -586 -421
3.4688 119 1460 -37 -241 1065 -677 -271 -2014
3.4629 680 695 373 -1681 1207 1119 2047 -2503
3.4570 -1498 -1908 -553 94 -1917 -1485 2320 -670
3.4512 -2754 -870 -722 759 -2763 78 -1356 23
3.4453 147 -146 -1892 -4526 -542 -2049 -1180 -3193
3.4395 -454 2595 -1567 1072 -1439 4119 -2519 -427
3.4336 369 437 -1960 2153 -109 -654 1973 615
3.4277 -723 -1266 -9 2555 -2378 -335 -783 -462
3.4219 -2050 1989 -786 -200 275 -707 2953 3023
3.4160 2351 822 1207 1447 1093 698 1096 -2152
3.4102 -1859 740 -493 5 -1324 6 -786 -831
3.4043 -1306 445 -741 -1044 -1943 -212 -1848 2950
3.3984 -1097 376 -1440 1987 1337 1924 -3571 -1879
3.3926 -780 71 879 -2240 -1961 -548 -913 -95
3.3867 -511 1725 -1316 -2491 -1382 759 -1338 2118
3.3809 -689 3123 1113 -534 -2259 -205 2743 1046
3.3750 820 -1566 -1350 153 -898 36 998 1315
3.3691 -771 -114 -450 -656 -343 -256 1865 -1435
3.3633 61 -62 -1783 -1000 1795 580 505 907
3.3574 -168 -2156 -928 -1120 676 884 -1518 665
3.3516 1819 -2402 1214 435 231 875 -708 -1796
3.3457 1442 1419 -1176 803 1906 -1691 2254 2310
3.3398 907 -1136 948 -699 1044 -1564 -1482 2994
3.3340 1501 1732 -639 -1559 793 793 -799 620
3.3281 676 -442 -1979 -2546 -147 -12 218 638
3.3223 -624 1912 -1664 -2453 -3037 -812 822 -1406
3.3164 249 -1984 -1972 -374 -1426 1071 1083 1571
3.3105 950 -930 -1370 -2111 -998 2280 2638 -949
3.3047 -2605 1795 1331 -1194 -2477 106 599 -919
3.2988 95 324 656 1458 -370 2542 2383 -492
3.2930 -910 -1856 -840 -446 -3 333 -1242 36
3.2871 -234 2270 -232 -1384 -98 2373 159 1039
3.2812 2660 -186 -272 2533 -444 -924 2484 -396
3.2754 -767 1540 885 -3221 1463 -674 -99 1906
3.2695 871 1767 892 1961 817 -533 875 485
3.2637 3637 -382 -2085 2514 378 2253 1428 9
3.2578 -372 -175 -1816 -48 1884 -2094 329 2146
3.2520 759 467 -418 -1494 1103 795 2121 224
3.2461 1211 487 -297 -1906 -16 2678 683 -533
3.2402 -718 615 -556 592 -1669 -376 -1530 -1919
3.2344 -1894 1539 291 -1160 -1318 335 -965 -2388
3.2285 -1383 1467 2667 382 233 2209 -561 2749
3.2227 -48 -243 496 35 -517 219 1148 1476
3.2168 1741 1414 -378 -3094 2019 -799 545 478
3.2109 1056 1492 160 -56 -3493 49 -623 -3089
3.2051 -465 686 362 42 -1971 46 -1416 -1037
3.1992 2470 -1938 209 -1339 -810 -1131 -41 2
3.1934 -2791 384 2497 -1717 344 -1819 818 -1680
3.1875 1305 -85 -339 1383 4150 -522 1787 2893
3.1816 -2349 -1639 -1221 -874 871 2472 -1367 1991
3.1758 -1138 -1139 1015 -1339 -696 1764 -265 1814
3.1699 449 1578 499 4383 -1496 513 -983 3356
3.1641 -97 524 289 1169 4328 -2502 -1256 460
3.1582 -1517 1000 966 11 580 29 -1385 -2009
3.1523 -603 -350 -308 2074 -292 589 -559 -651
3.1465 -444 531 1895 -783 -2741 -2544 -2256 -2841
3.1406 -2312 -1732 1010 -349 2233 -2532 532 534
3.1348 1095 1318 -1116 861 320 -591 -11 -68
3.1289 -521 -2615 -81 939 2412 -1248 -318 51
3.1230 921 1225 -188 -1227 2025 -866 4532 1762
3.1172 -839 2923 119 -2444 -1436 3137 1224 1874
3.1113 3151 -540 377 749 1191 -2522 -1604 2229
3.1055 -2476 -2872 -1352 -2560 -2324 -1045 -2358 2109
3.0996 -1188 2582 -305 359 1308 -1319 -202 1854
3.0938 1202 679 272 2125 -477 -2003 -1100 -268
3.0879 -3023 535 -1649 1657 894 -698 -1345 -770
3.0820 -249 -376 1145 167 692 -1236 -2565 1644
3.0762 -1686 -20 1077 -1781 -467 -2248 188 -637
3.0703 -1432 -1444 -443 499 -350 1334 -71 -269
3.0645 218 -230 1939 27 -497 -183 -2179 -610
3.0586 30 2449 -310 -363 -1724 -473 -437 -1974
3.0527 2312 -712 1484 194 -1744 1387 154 -444
3.0469 761 -2148 1479 -548 -844 -513 -182 77
3.0410 1532 1588 -1516 -851 250 175 551 -420
3.0352 842 171 -1767 -655 1173 -2496 1242 787
3.0293 -1227 -1388 -383 -1183 -820 1260 -559 -1879
3.0234 1510 -2641 559 -72 9 -1249 -785 736
3.0176 30 3219 428 2411 -1172 1180 -984 89
3.0117 2963 1638 102 -1849 1018 92 4771 1655
3.0059 -595 -888 1275 -2223 -572 -3740 -276 971
3.0000 3544 648 -1218 -616 -2353 46 401 314
2.9941 -2027 1332 496 1384 -1621 -428 763 684
2.9883 609 285 -2506 -1371 2270 702 380 -592
2.9824 956 -230 -521 2308 533 1861 -905 -2078
2.9766 917 -724 614 1154 -507 557 34 -2430
2.9707 366 861 -350 1797 -1168 -2043 -1122 1211
2.9648 -878 -3277 2761 -3572 -443 -2070 -1416 -2771
2.9590 472 -1209 2060 275 -702 496 -1301 -375
2.9531 15 -58 1011 -1726 -1838 1147 32 -147
2.9473 649 -220 754 615 -3607 2190 -59 2253
2.9414 -70 958 1185 -1759 685 -1637 944 1439
2.9355 -1126 1852 560 209 -753 -1212 -315 1217
2.9297 119 548 -580 -548 -1192 131 -590 2791
2.9238 -1803 -1027 -949 -83 -745 2282 2885 276
2.9180 -1096 836 -578 519 -1244 1069 -187 -1158
2.9121 1896 484 556 1588 -1050 -258 988 -1653
2.9062 3221 -564 2031 -1828 565 -505 252 310
2.9004 -2830 -133 956 -2368 -2073 -270 -799 -665
2.8945 1461 -2667 1091 900 -700 349 609 328
2.8887 -2653 925 267 -1787 -3116 -225 1718 1388
2.8828 1249 2398 -178 2067 -1285 -913 -394 -1190
2.8770 3192 -1866 1933 -118 -757 873 818 -2434
2.8711 -1356 1871 3486 387 -1088 1281 -3185 2672
2.8652 2298 -895 -597 -1480 1609 1088 1448 -717
2.8594 1523 1589 1450 3877 1783 754 1938 759
2.8535 -9 307 -1252 2310 -298 504 -2358 -1258
2.8477 -294 1920 -1328 2815 1742 803 2522 -1730
2.8418 -1167 1538 662 2093 -265 -878 -975 290
2.8359 935 -2081 -1877 -2128 -918 -631 -758 -2473
2.8301 1233 1545 -361 -3013 -28 277 -1914 -605
2.8242 -1706 2249 -813 -3622 592 49 305 628
2.8184 447 1169 836 -989 382 -246 1396 -701
2.8125 -1998 451 -404 2279 259 278 2359 -949
2.8066 -1568 327 -67 980 46 -634 235 560
2.8008 907 840 2250 1965 977 -48 -294 -1766
2.7949 -906 821 -2290 455 -1353 -1003 -1848 357
2.7891 1695 1488 -905 272 302 1960 -2927 -3339
2.7832 -626 1134 793 -1349 1440 2568 462 -1573
2.7773 901 -681 1472 227 2201 -1013 402 697
2.7715 -1900 651 1186 -2075 252 -1215 -2527 911
2.7656 404 929 22 -3453 170 -1786 131 -566
2.7598 936 -3012 -23 344 -737 2464 -1367 -1350
2.7539 476 251 954 -1994 -3878 2006 -1040 -1297
2.7480 -892 1266 1967 928 -1249 2310 -332 -1168
2.7422 -200 -834 -1607 -140 -1837 -1732 1103 -1923
2.7363 239 854 580 390 -58 2759 385 1612
2.7305 -1373 768 -702 3065 -1422 345 237 -1842
2.7246 -691 -312 2448 -1671 101 1034 -3135 3076
2.7188 2275 1701 350 891 2589 1117 1482 417
2.7129 1707 -1262 1716 -581 3282 -988 499 715
2.7070 -1686 -1576 -1872 463 263 -418 -1074 1013
2.7012 -1539 1515 515 -262 -114 -416 -189 -686
2.6953 -407 2333 2888 508 -4056 549 69 -2344
2.6895 1832 362 -4076 191 -1661 117 -2004 2245
2.6836 2265 -2034 -2241 1619 -1150 -383 -4730 397
2.6777 120 464 1409 -613 -517 -1816 1243 1405
2.6719 -824 -104 -2186 2503 1932 -13 -3433 1801
2.6660 -1798 567 -3458 1466 2352 1374 1076 101
2.6602 1234 -521 -2591 -967 -2822 -150 2300 -925
2.6543 -38 -856 -477 -75 1709 776 -1382 -101
2.6484 694 2586 1829 2471 -2596 588 2442 72
2.6426 -1752 1606 1313 820 -408 235 -767 -597
2.6367 -664 -1982 -314 249 739 302 -322 -1503
2.6309 1519 -447 -1447 453 -1683 -892 -770 391
2.6250 -281 1146 740 -251 -1075 598 987 -965
2.6191 2432 -470 1619 508 -1939 1321 1103 -1310
2.6133 2097 -2127 483 -1273 -615 -1158 -1256 1589
2.6074 -188 2883 -1433 341 -306 1055 -1636 -1233
2.6016 781 -855 1565 2136 40 2467 -2662 -444
2.5957 -1433 122 310 295 176 -55 -812 1213
2.5898 -1937 -2200 2388 739 -1205 3790 2055 1452
2.5840 -1989 1798 -13 1387 -1236 -1392 -626 953
2.5781 -773 -640 -1664 -1473 1102 -1981 632 72
2.5723 49 160 -21 2693 -1089 311 785 379
2.5664 -806 -375 -180 -1236 -1667 958 -32 1102
2.5605 -103 -642 86 501 429 2260 -38 -1106
2.5547 -644 52 -1746 613 -2136 899 -766 277
2.5488 -848 -2089 56 -696 1688 1726 -621 -2222
2.5430 -797 2932 -1303 664 -2260 -2258 920 -147
2.5371 591 220 -626 285 548 -2372 2219 513
2.5312 1839 -2662 -1789 -1062 -1246 -440 -1754 142
2.5254 -2236 2565 -124 -1964 -203 -894 499 566
2.5195 511 -131 2934 2344 -1047 898 1766 41
2.5137 244 -1957 23 984 -2954 -366 1255 1162
2.5078 610 -153 -940 912 377 227 1858 -433
2.5020 -578 381 -950 2323 1322 948 -1939 3094
2.4961 1354 -1800 -2379 -1101 634 1282 1301 -1037
2.4902 507 969 40 83 780 -1606 -4547 -467
2.4844 -825 1203 463 3253 -441 3842 2054 1172
2.4785 -530 1851 350 3233 -617 -738 -637 -388
2.4727 2387 340 -2419 -972 1884 680 124 -586
2.4668 1675 788 321 2574 2921 2431 -1602 1806
2.4609 -549 -2679 -2526 -1044 335 595 1029 -623
2.4551 -40 -96 781 -1296 1607 566 -4759 1629
2.4492 2996 -1765 224 299 2007 1538 2620 -1809
2.4434 1011 -1102 633 -108 -203 1465 -615 -1999
2.4375 -217 -235 -765 -784 -544 2561 2472 296
2.4316 -3021 155 872 -341 1884 447 489 -490
2.4258 -2789 522 -2869 3034 -328 472 853 -1053
2.4199 652 -566 1727 -1481 -755 71 539 -1542
2.4141 1103 2863 111 -41 -2339 -1139 1551 2704
2.4082 636 -1439 1488 -961 182 678 -45 -435
2.4023 -384 543 -1884 -406 3254 137 904 654
2.3965 2312 593 -2123 1252 847 1185 -2387 -242
2.3906 521 1078 -572 1346 -1269 -1844 -1395 2758
2.3848 -285 -640 1674 -3722 -3960 663 1376 209
2.3789 1577 1177 397 -746 1227 489 539 -657
2.3730 -2048 222 -1369 2057 189 -368 2219 1662
2.3672 -2264 1528 -691 -2966 276 998 509 166
2.3613 1912 -696 -1818 -294 -1330 1217 72 -661
2.3555 176 1268 -2205 -1872 -1973 1076 2349 720
2.3496 1125 -753 379 394 1112 792 -2532 459
2.3438 -712 -849 -3125 448 449 964 449 779
2.3379 -1176 -1216 2277 -1677 -839 59 540 113
2.3320 1749 -372 -1297 1411 1873 369 -1936 -374
2.3262 304 1992 702 214 -702 1573 -904 475
2.3203 1858 2021 476 1138 1576 -567 2122 -603
2.3145 -1201 1290 -1123 2256 996 35 2167 579
2.3086 701 566 -526 1127 -781 -305 1416 -715
2.3027 1210 2820 2422 -526 1232 1052 1169 -435
2.2969 -450 828 -113 1564 415 1974 426 457
2.2910 -1737 2478 1231 -1239 505 -2584 -1524 -2467
2.2852 223 1856 447 -474 1588 376 -2731 -1425
2.2793 -643 214 1207 2369 -1928 -675 -659 -1640
2.2734 883 2154 -2568 73 2581 -565 313 -1173
2.2676 412 -1161 923 -330 2173 -1474 -1591 554
2.2617 344 -1519 -310 -2922 -1703 884 1601 -1889
2.2559 1323 -90 -938 1255 -1992 1563 -1698 74
2.2500 803 -849 -947 -902 866 294 -83 433
2.2441 -1376 -2253 1739 969 -196 3421 -399 262
2.2383 -814 -261 -417 -2 840 -3382 -1716 -1130
2.2324 -330 -1498 805 -1315 2561 1535 -1599 1691
2.2266 2199 1264 174 655 -822 -285 2590 -2204
2.2207 910 713 1047 -1496 -4377 -745 -1436 1978
2.2148 235 -1821 2647 606 -2629 -744 1258 -2774
2.2090 -144 -1103 1447 259 -2253 80 884 -619
2.2031 -452 1189 -1347 -830 278 2053 -1527 -579
2.1973 42 -428 1479 -626 -1765 -478 1479 17
2.1914 -673 -2142 1094 -2444 1674 383 -568 -553
2.1855 -930 122 1914 -464 -49 -781 -178 131
2.1797 -1365 -733 1114 2564 -3368 1758 -360 -575
2.1738 71 1269 174 -541 -2960 332 1238 -1603
2.1680 -2549 411 2176 3011 -1020 -1640 1677 -1628
2.1621 -33 484 -989 -754 1611 199 -545 2080
2.1562 -126 -179 546 919 -2392 991 -354 393
2.1504 -527 1013 -1310 2112 -1581 -1832 342 -1270
2.1445 -4465 972 -415 1024 549 -630 -544 -2792
2.1387 -345 676 -356 783 1933 293 2617 2501
2.1328 2407 -1492 -621 1123 -765 834 232 1249
2.1270 680 -3140 288 17 -3120 2113 2763 385
2.1211 -911 748 -1167 -521 1538 3128 -323 -681
2.1152 -2483 -226 255 -2132 -1051 -731 2138 -2092
2.1094 966 1836 2311 707 1772 -395 827 -580
2.1035 2889 -1249 -129 1408 2279 1378 247 -337
2.0977 792 485 3443 1111 2336 1454 1159 2530
2.0918 2889 4892 1970 -965 -1620 4792 3651 4202
2.0859 1011 107 -1165 4052 1662 2512 1492 1216
2.0801 3195 1056 2142 4071 864 2218 416 4029
2.0742 74 996 2406 2692 1173 1106 522 3178
2.0684 1685 2056 2981 2729 3158 2441 1745 3959
2.0625 5281 3811 3130 5001 6343 5179 4722 9615
2.0566 10780 8372 8486 11011 12146 14419 15670 18428
2.0508 20585 23937 24781 27791 33102 41042 52592 68706
2.0449 85198 116336 160021 237936 369590 598019 905434 1000000
2.0391 731121 453018 287190 188888 135498 96231 73583 58588
2.0332 46732 39849 33173 27578 22344 19863 20983 16651
2.0273 14173 13657 11434 9045 8680 10797 8720 6757
2.0215 7395 7808 7324 6180 4416 6201 6513 1612
2.0156 2613 1568 1350 2463 1363 3460 2540 3369
2.0098 3413 2123 2272 2719 1299 -14 355 -1148
2.0039 242 2448 -554 2625 1365 726 -597 2068
1.9980 179 1846 168 2861 4169 487 -153 30
1.9922 810 2592 997 30 -551 -228 1132 638
1.9863 3173 778 -726 767 -539 669 963 -13
1.9805 1112 -519 2269 -1102 2601 263 -627 266
1.9746 -558 -156 -99 1825 1833 418 1814 579
1.9688 -2985 381 4 1472 -1354 3916 695 716
1.9629 -725 454 682 -152 1632 2065 -347 -23
1.9570 -473 -1689 1847 2214 1232 3580 903 825
1.9512 848 57 1674 1472 945 338 1275 1011
1.9453 529 -333 2222 -3042 1153 1659 -250 838
1.9395 54 -587 -2928 -37 -1388 1534 1653 -2365
1.9336 -2643 2038 1073 1328 -2957 671 53 1670
1.9277 1596 -4881 3221 -1166 648 -952 -161 -2724
1.9219 445 4 517 -694 -669 -331 -1176 -1247
1.9160 -898 -1490 697 -1472 1925 -46 280 -2085
1.9102 145 2135 -1577 2079 -1080 -733 -821 1564
1.9043 2423 2784 1957 934 -1604 -243 -1863 -260
1.8984 537 3079 -280 -2981 -1567 790 1839 -2639
1.8926 -982 -86 -1351 295 -992 3256 -1419 -704
1.8867 1189 499 1006 -609 2461 -1463 -1398 -155
1.8809 665 2922 768 99 -593 -61 -1284 1911
1.8750 1271 -652 1772 -280 -720 -198 -1107 -1005
1.8691 -1236 -813 893 -705 1115 1301 347 -347
1.8633 490 -618 891 1707 -1280 -1766 1064 -2887
1.8574 -1084 1029 -1594 -776 -561 -1244 -208 -1256
1.8516 1490 1928 -519 -2847 -1164 -879 -879 -1894
1.8457 26 -146 1239 977 2117 -39 217 578
1.8398 668 1713 578 512 463 1314 2204 -462
1.8340 -1211 -17 -2515 334 -302 -706 -2997 1204
1.8281 -2573 2707 -944 -597 638 583 -2725 -953
1.8223 1195 -1180 -1591 -726 677 1339 2700 -944
1.8164 -523 777 24 -4447 -909 -1545 -621 102
1.8105 -1097 589 2694 -897 -1070 -18 1121 -1389
1.8047 -453 53 -448 4500 1657 76 486 24
1.7988 -68 775 -48 -1656 653 -1005 -1017 -1535
1.7930 1087 -2582 -511 -33 -1576 125 -1424 -394
1.7871 1574 -2286 3392 -793 -361 259 1551 76
1.7812 949 199 1171 -1938 1300 -1930 -882 284
1.7754 -1211 -1356 -1786 -712 -1849 273 -705 -151
1.7695 -107 -1820 -2759 -1381 -659 -1360 -1261 -666
1.7637 -1993 -323 937 -1024 664 -2621 -610 292
1.7578 1785 -335 -2589 -2676 -454 2146 -740 -2055
1.7520 -65 1570 147 -516 1407 -1227 1440 -951
1.7461 -1608 -964 -422 427 -2100 624 -599 -1387
1.7402 949 -668 358 -1346 -273 -1477 2096 -2198
1.7344 644 1148 -878 124 -3850 1920 -145 -1037
1.7285 702 -146 -1283 1490 -1242 1809 -1173 -2242
1.7227 -1430 403 -1326 48 -125 1249 -1681 -1904
1.7168 1067 -500 -1140 -1037 -5264 1042 471 1826
1.7109 -2249 -947 -382 928 299 2176 386 -398
1.7051 25 -2485 -873 296 2163 304 534 -1031
1.6992 593 -2389 492 -3769 97 -102 1100 1322
1.6934 55 590 -1036 2695 -2131 2099 -745 994
1.6875 -460 255 519 -2713 -2935 -754 -1472 -1021
1.6816 142 -1377 -1484 -117 -357 -640 -636 -3854
1.6758 4279 1325 -1343 -1559 1598 331 -1398 1312
1.6699 -1674 859 -1352 -569 -919 -2456 -1307 1609
1.6641 -278 174 1658 5825 1650 -1762 819 -465
1.6582 -93 -121 -1734 960 -584 1055 2973 1475
1.6523 712 -1235 1341 1434 566 -192 -2655 2579
1.6465 -1569 -1325 98 240 2598 55 -1434 -2104
1.6406 312 887 -206 -1285 1326 2165 -534 1745
1.6348 633 113 314 -1671 1832 -2507 -1362 372
1.6289 2050 805 2700 -283 846 962 1747 -669
1.6230 -1007 -520 -872 -1175 -107 90 -1289 -3069
1.6172 -1235 226 -495 961 1663 -1402 -3135 -2323
1.6113 -1016 -806 598 290 564 -750 -1368 -663
1.6055 -3137 -1097 973 1940 1524 1184 120 599
1.5996 -28 -284 -2093 -40 1075 819 -383 -927
1.5938 7 14 -84 3847 -1 715 2420 815
1.5879 -72 93 1415 1173 866 -905 -921 63
1.5820 -3044 3593 490 1227 -888 465 172 2234
1.5762 -726 478 -373 2881 -379 1347 -2769 2555
1.5703 610 -1860 2043 -354 -984 -696 218 1373
1.5645 280 -808 1631 1029 -165 1174 -3060 533
1.5586 1145 2341 -183 -2182 -199 199 90 -1644
1.5527 3077 2527 3469 -15 18 969 754 1106
1.5469 1090 -2026 697 680 -1497 335 431 -1500
1.5410 2624 1040 -32 1368 -142 2489 1222 822
1.5352 893 1688 1455 208 322 326 -1082 -227
1.5293 2367 1102 -1073 746 2143 -246 -2188 2287
1.5234 -999 1261 -3102 -918 -1527 549 2155 -573
1.5176 -78 -751 -540 -655 -1289 240 -68 -196
1.5117 1615 -1849 -2650 921 1893 -885 1320 -1936
1.5059 -452 -398 65 -931 -258 -1056 980 -690
1.5000 742 258 2369 226 -1995 -3080 -2512 -277
1.4941 531 -775 1340 974 106 1402 263 1855
1.4883 515 -982 -1461 -1400 -294 -871 1104 -1201
1.4824 14 427 -886 -1385 2553 348 -1630 2389
1.4766 799 738 -59 1588 3317 288 707 147
1.4707 1839 -56 647 1389 -349 -924 -1596 186
1.4648 3712 2810 -2332 -3771 -2662 -2092 508 92
1.4590 801 1625 4491 -301 -158 -658 -2826 936
1.4531 2765 1493 772 -4 -139 -1031 -2031 -938
1.4473 1045 2677 97 1106 1491 109 -1863 -470
1.4414 283 -2256 -384 2987 -252 -1058 -1278 183
1.4355 -2230 -31 2723 1792 420 99 2781 -420
1.4297 -1625 -2838 -2005 -3168 -592 214 1082 -500
1.4238 -1219 348 -2091 2067 -509 -859 -1661 160
1.4180 1255 -534 500 501 851 -1487 59 4504
1.4121 1321 37 183 -2000 2320 -91 435 -1219
1.4062 3260 -2516 -2288 -1063 -941 -661 -2206 -1699
1.4004 -1667 -3063 -347 -165 225 -265 -296 -1157
1.3945 669 111 570 -1897 -555 1577 221 1550
1.3887 275 2222 3600 -1775 -2477 -3362 3676 -619
1.3828 -2561 54 119 -53 1477 -783 -778 636
1.3770 420 -1601 -781 -408 843 -371 448 -630
1.3711 -405 1125 1432 2723 104 924 389 -1888
1.3652 2780 -488 2234 501 1209 1536 1458 187
1.3594 -1799 -528 -737 771 1157 2413 660 -635
1.3535 2405 446 -1588 -867 2547 3505 1354 -1192
1.3477 2235 -906 372 -365 -138 291 1357 1635
1.3418 1525 -708 1118 291 -134 820 -189 1393
1.3359 118 682 2394 -1104 1127 705 2696 1870
1.3301 -1276 1334 -2004 1836 -1542 1296 1199 300
1.3242 3056 3058 446 -385 569 945 1728 2116
1.3184 -990 2177 323 -923 2576 270 625 3001
1.3125 -1404 1932 -688 152 3090 3165 2617 833
1.3066 2417 300 -1815 855 1019 2453 1024 2122
1.3008 1617 2599 1358 4422 1197 5723 3445 4373
1.2949 3459 6381 3560 3487 3812 4826 7757 6441
1.2891 1633 8532 7884 6228 9570 10253 13637 17103
1.2832 20642 29663 35314 46974 69752 108502 174578 247300
1.2773 244681 166075 104124 68527 47421 38660 31830 26406
1.2715 24374 19710 21538 18672 22637 24914 26519 36600
1.2656 39676 49460 64679 87341 122022 191873 309249 462393
1.2598 501688 364138 226831 145086 97745 70994 52317 41985
1.2539 36583 27678 25213 21446 20776 20437 23810 24140
1.2480 24891 26273 33069 42955 62555 88965 138888 218021
1.2422 256629 200638 123707 80699 54783 38083 29029 24502
1.2363 16999 15171 12082 9057 10054 7370 8741 7411
1.2305 6366 4373 6808 3366 1644 3866 2984 1160
1.2246 968 1247 3109 2313 2933 62 245 3451
1.2188 4000 2830 1540 1854 205 -488 1992 3997
1.2129 281 2710 275 4424 632 -777 790 1222
1.2070 -1002 -1157 5423 77 -1640 321 -926 2847
1.2012 -871 2113 2654 1776 -387 717 588 1664
1.1953 1947 -350 -3942 1166 -285 2765 956 773
1.1895 -37 796 -1839 651 1800 67 -146 -2284
1.1836 -1042 1215 -2286 158 846 -1190 -1404 2771
1.1777 93 -2490 136 2912 -416 22 2588 19
1.1719 1299 2846 855 616 302 -204 1134 -289
1.1660 -950 747 1149 -232 -2230 1142 800 227
1.1602 266 877 -2554 -523 803 -2647 -800 833
1.1543 366 -3196 1307 1217 -1316 -1181 -2647 1062
1.1484 -10 451 -1285 1582 -101 1566 333 1479
1.1426 928 952 1542 -1476 1480 -1675 -2588 790
1.1367 -1992 573 437 2418 -971 54 952 -1288
1.1309 -2043 -546 2338 -1522 -1195 1226 1818 256
1.1250 -4437 1151 -1279 -619 1293 939 -913 -597
1.1191 1091 -1560 51 -1066 -1188 170 -656 -1824
1.1133 -875 154 176 -1407 -14 2104 535 -400
1.1074 -1294 -197 -322 1709 -201 -38 2263 -1639
1.1016 150 -194 -737 502 -595 -676 90 -850
1.0957 937 2392 -105 2579 54 -157 -670 -182
1.0898 1071 -1693 112 475 -1319 1448 -550 1724
1.0840 408 -1723 1393 -728 2199 -442 1533 1012
1.0781 -25 1004 1662 1532 -828 -1029 -2855 1830
1.0723 1132 743 906 4030 1304 -772 44 974
1.0664 1365 -956 1381 -739 -290 -1843 -1018 -1724
1.0605 -1146 1736 -204 -4474 -911 1800 84 -1057
1.0547 -1372 -782 -1774 -1118 -1789 -2659 304 167
1.0488 1469 -1540 343 -2403 1542 385 -1583 1675
1.0430 1342 2299 -1107 -913 647 1264 340 908
1.0371 -632 713 604 1606 -349 1574 75 1529
1.0312 -1490 1497 468 -2281 2685 -3776 -603 1613
1.0254 -1786 -1635 88 1200 1061 1537 -941 790
1.0195 598 19 -896 -128 -208 -2413 990 409
1.0137 1421 802 -1850 -1099 559 -312 238 1390
1.0078 -634 -1205 772 -10 1416 3311 -1147 389
1.0020 -33 1208 -100 -1211 282 159 1117 1114
0.9961 2654 -1900 561 -1138 1787 1616 1435 -299
0.9902 1019 -716 1358 1310 -648 -357 -881 -293
0.9844 11 2204 -363 -2598 107 -1093 1063 3233
0.9785 186 -2056 1102 -889 1488 910 -1542 1114
0.9727 995 -273 1186 -1406 -2095 104 -510 167
0.9668 -1748 853 877 -1005 -640 581 -1685 397
0.9609 2059 162 -1677 2036 -308 79 240 648
0.9551 753 852 789 -1630 -452 654 1096 1459
0.9492 -888 -606 2658 -989 460 687 2761 -1809
0.9434 -4 -383 548 1001 1069 -186 2571 -747
0.9375 -704 -1888 2875 1308 1191 -1267 1815 1216
0.9316 454 -551 1707 600 1432 -211 268 1871
0.9258 1952 -887 -2349 1157 1110 -1390 970 543
0.9199 958 -1296 -2169 460 736 687 54 -109
0.9141 -1402 -3387 -411 -1233 -874 2033 1812 -3318
0.9082 710 -930 -1072 4008 -2865 653 577 711
0.9023 326 869 -311 2018 -510 -1870 -484 -1904
0.8965 -587 1278 846 -1854 -997 -802 57 -2334
0.8906 2562 400 -3228 607 -283 -2272 -1206 -901
0.8848 1143 -1663 741 1803 864 -1794 -770 -1784
0.8789 495 2065 -1187 1586 -310 424 2333 -932
0.8730 -2395 532 504 -2166 632 -183 932 3345
0.8672 -614 1210 1980 334 423 -3226 3369 -931
0.8613 -1947 2422 1651 2848 -573 -656 -150 696
0.8555 -874 1040 1083 1764 -406 -187 -284 -1350
0.8496 -664 -2419 -168 -1251 -256 1697 1682 -2838
0.8438 -2332 -1080 1090 -554 448 -1646 177 142
0.8379 -18 -879 2416 274 195 -1403 1026 -438
0.8320 -1150 -1823 1114 -2949 1536 -1445 -1949 -1220
0.8262 587 -1183 -1160 -2059 -600 -969 -562 -150
0.8203 -345 -201 1975 2170 -624 -40 -584 1492
0.8145 -260 736 2824 -365 3527 -1840 -945 -213
0.8086 -2758 -228 -1281 -1177 -709 68 -1679 -16
0.8027 -2005 -114 -689 -1127 1403 980 -675 -3220
0.7969 1697 506 -1064 310 -768 730 -1208 -2644
0.7910 -2609 -689 3597 1028 1710 1441 -1599 330
0.7852 184 1489 -1364 1664 1230 -1510 2675 290
0.7793 -338 -248 -1439 -703 -157 1050 -1597 1703
0.7734 1854 -2624 3209 2413 81 1723 313 2769
0.7676 1086 -1654 -72 -363 -2262 208 647 -256
0.7617 2935 1376 -1084 184 710 -1415 -26 -342
0.7559 1556 695 1615 221 3609 -2142 -2286 64
0.7500 534 643 758 1845 1799 -1105 -1795 -365
0.7441 -1444 1178 910 2612 248 1222 1505 -3526
0.7383 -3256 516 -1097 3381 4265 -1021 -463 -2050
0.7324 -2028 544 719 -1398 -2699 758 294 923
0.7266 336 1350 419 1498 838 -2296 507 -1458
0.7207 240 -1039 200 -605 -2137 -76 -181 945
0.7148 -3429 -495 -3931 765 366 -1510 -126 -1197
0.7090 -835 -771 406 -300 420 -2743 -923 -1130
0.7031 -624 918 -264 1476 282 2 1974 -922
0.6973 -1668 93 -1238 983 130 2522 74 -495
0.6914 -927 18 -1189 -1940 839 -1016 71 -1657
0.6855 352 1133 30 -879 -1033 1147 2111 29
0.6797 1320 -882 -3187 1068 1447 516 -250 4351
0.6738 -79 194 358 2346 -2338 -741 -2280 -2660
0.6680 -1824 -2046 683 -469 1087 -613 -2144 -957
0.6621 -1914 240 937 641 1256 1391 -1484 -688
0.6562 310 1005 -947 -195 -869 2103 410 288
0.6504 -922 -1189 -4097 2157 1450 368 627 -71
0.6445 872 -803 157 220 -1181 2198 -2860 -733
0.6387 449 -851 2132 -1350 723 -438 -617 797
0.6328 -250 -140 -2337 -1403 2153 -1784 -245 -31
0.6270 -111 704 1768 -352 1697 1200 -2000 -693
0.6211 -1332 1300 3328 897 1622 -946 954 732
0.6152 -1462 -124 -2384 1901 -979 -9 569 53
0.6094 -271 2525 -948 -892 -99 -3209 -109 -675
0.6035 -835 -163 265 2500 335 -18 -929 374
0.5977 -2717 -1973 1508 277 1644 -1563 2952 1371
0.5918 -919 -2080 -1772 17 871 623 459 718
0.5859 -1763 2207 2738 -3413 -634 -739 1455 1078
0.5801 239 -2323 -1497 -1144 156 -188 -1106 1488
0.5742 979 2095 -479 774 614 2750 1468 692
0.5684 355 2676 2023 1109 382 1614 2250 -1816
0.5625 186 -3056 1049 -1432 -194 -437 1842 -2680
0.5566 -1260 75 608 -434 2833 -3821 -1324 -724
0.5508 1049 -500 -843 -584 1198 -2001 193 -2246
0.5449 -1170 -81 3188 -403 -1161 91 3915 691
0.5391 529 -221 -1193 195 2136 -3804 978 -1742
0.5332 62 1923 457 1739 -141 354 -327 -1037
0.5273 91 1886 -704 -1425 -494 -1539 -2739 -1234
0.5215 4033 578 -551 2267 -55 1080 -1817 -2620
0.5156 1816 -278 -52 650 -326 2987 -1393 698
0.5098 1413 -963 997 -1910 1028 1514 1519 -1938
0.5039 -666 730 -146 -730 -982 1792 1331 -633
0.4980 2271 -379 948 3241 -1426 -192 752 -587
0.4922 -512 333 -1780 -357 2661 -142 -527 3048
0.4863 403 -423 220 863 401 -2317 20 2352
0.4805 727 2073 -1312 -682 -315 -284 1144 1272
0.4746 785 -1359 -1867 -1568 -318 -2645 -246 -97
0.4688 952 1227 -1950 -526 902 264 143 1790
0.4629 -17 1566 73 -657 -1478 2246 1042 926
0.4570 -3666 3476 2128 -230 -552 44 153 -342
0.4512 381 315 -121 -2021 644 -653 -1538 1766
0.4453 -1286 -86 -1687 -980 1024 -536 -1271 1455
0.4395 -1124 795 -834 -249 -489 -1365 940 -580
0.4336 1794 -581 -652 -1794 131 961 -480 471
0.4277 2043 -591 -2791 244 -572 -1534 595 907
0.4219 1888 -1731 554 1307 -1629 1296 -1299 1452
0.4160 -224 1578 -1924 169 -943 -727 77 135
0.4102 -1215 -1578 130 -1728 808 -560 2323 1961
0.4043 1085 267 321 -127 -1273 -1169 -1617 4012
0.3984 45 -962 -475 -1552 982 20 -3014 -1060
0.3926 1383 -1429 1472 908 -667 -103 -928 -1169
0.3867 -108 -642 -809 -438 -326 2225 -2656 531
0.3809 -1770 -2397 1279 2116 937 -2370 2617 5
0.3750 -87 -173 -241 95 -2233 -1407 1606 298
0.3691 1033 -1624 -1062 -1590 -1147 -367 -2508 -1445
0.3633 -1490 -1920 -619 -1074 -1029 2638 -2380 -250
0.3574 -1345 -197 -34 -254 2258 -374 -64 532
0.3516 1226 1101 -279 52 -2183 -793 761 -1238
0.3457 -270 204 -2182 -1295 -1235 521 1844 3085
0.3398 1614 -1978 1206 -465 -446 -2681 2790 2356
0.3340 -952 718 -506 -1020 897 605 114 -877
0.3281 162 -378 305 1641 -4292 -216 -2180 1169
0.3223 -858 -980 2750 -250 -1054 874 -179 555
0.3164 -1275 901 1770 1407 450 236 881 925
0.3105 215 348 651 -1048 -3583 148 247 1821
0.3047 -1050 1256 592 -849 -2427 944 2105 -1595
0.2988 1774 52 104 919 -805 -3330 -1391 2604
0.2930 303 -3828 -1953 -620 910 -925 -437 1165
0.2871 -468 -17 -2782 971 2645 -953 1564 -1447
0.2812 2689 283 -3098 1121 -1493 3233 565 2683
0.2754 -530 279 -254 -741 -515 106 1884 -607
0.2695 1883 764 -63 -521 741 359 -2707 -1352
0.2637 -1015 -1932 1384 1063 -716 -773 1170 821
0.2578 -1436 1149 -974 614 -4 -565 -542 297
0.2520 630 258 1098 1779 -90 4158 1734 442
0.2461 923 3893 615 1642 -769 -265 -1626 -1240
0.2402 1468 862 -786 4277 -817 -1659 1965 -1179
0.2344 -1822 -1704 1419 505 199 -1505 -500 -677
0.2285 2219 -2100 3072 1496 -2428 1282 155 3985
0.2227 1104 -405 1717 -867 -2649 -257 -964 2956
0.2168 -1317 -804 730 -2132 -249 2369 769 1367
0.2109 438 1073 -432 -3644 652 843 -482 309
0.2051 205 1329 -297 1372 3204 366 -1644 -659
0.1992 1805 -1215 -742 -919 -2845 381 -1875 -2309
0.1934 -4291 93 -1269 -756 -1718 2325 1557 1193
0.1875 1040 234 -2415 1456 -1078 -1346 274 -1162
0.1816 -1909 -1430 2055 2575 -1 -1091 512 44
0.1758 2594 777 853 -634 3049 -268 -1038 -1797
0.1699 -1899 340 -2876 -1833 -586 -1434 1698 234
0.1641 -1815 1048 -179 165 -5080 -526 -744 1747
0.1582 291 -808 -3745 -356 1196 -88 588 -41
0.1523 1791 1140 -1853 -1319 -843 -249 2688 -1917
0.1465 330 1438 1592 1282 -2474 -1992 1118 -995
0.1406 -2404 -948 -205 -3290 699 -580 -665 -728
0.1348 989 1381 -2129 -862 1652 -164 622 -1690
0.1289 -1349 3000 -404 1458 -2702 1639 1356 1276
0.1230 2210 1575 852 -2061 -889 -729 -2259 751
0.1172 -264 346 -1593 417 -173 1546 -1114 316
0.1113 -3021 777 0 958 -250 -2185 -650 9
0.1055 -3035 -2289 -1750 1156 3204 -143 959 163
0.0996 981 1865 -2569 -620 -1235 1218 -750 907
0.0938 1092 -737 -462 -867 332 2030 1626 1412
0.0879 -3429 -2747 -2041 -1358 542 229 4030 -774
0.0820 -579 -190 -4199 358 656 1121 885 -582
0.0762 1102 1055 -1288 -1246 -3587 -656 -570 2445
0.0703 21 -662 -808 -125 -4395 -1591 231 1462
0.0645 708 356 -1113 -1766 -2948 23 126 20
0.0586 -872 -478 -431 -354 -409 -1317 -2040 761
0.0527 604 1632 1107 -161 -2056 330 1446 16
0.0469 1775 1347 157 263 -1228 -215 -994 -1460
0.0410 286 3004 -148 2509 501 -581 2920 971
0.0352 160 -698 666 5022 126 2798 1013 968
0.0293 -736 -14 -1876 -497 -896 1276 -1952 -540
0.0234 1512 -1182 1419 -2962 -1452 -628 -259 -505
0.0176 1400 655 970 2299 -1328 -1416 416 -625
0.0117 2091 -1437 -312 -1278 569 969 -1307 2335
0.0059 303 -814 3766 -1252 -133 -2449 453 -680
##END=
