##TITLE=Ethanol (needs phasing)
##JCAMP-DX=4.24
##DATA TYPE=NMR SPECTRUM
##ORIGIN=NMR Analyzer teaching set
##OWNER=public domain
##.OBSERVE FREQUENCY=400.0000
##.OBSERVE NUCLEUS=^1H
##.SOLVENT NAME=CDCl3
##XUNITS=PPM
##YUNITS=ARBITRARY UNITS
##FIRSTX=12.000000
##LASTX=0.000732
##NPOINTS=16384
##XFACTOR=1.0
##YFACTOR=1.80532986E-02
##FIRSTY=4.221379E+01
##XYDATA=(X++(Y..Y))
12.0000 2338 2580 506 -740 -1231 454 -1126 -1748
11.9941 706 607 1226 -964 414 310 -1851 1214
11.9883 888 3990 711 190 2256 705 1770 -141
11.9824 734 1943 1451 600 -1216 1075 523 1488
11.9766 732 2039 330 710 1408 -1222 -195 -342
11.9707 3378 269 1386 1337 -13 -1918 1855 -203
11.9648 1485 -1549 -249 2293 2554 -1545 -1591 342
11.9590 1500 649 864 -1075 1288 2083 -245 -1741
11.9531 -729 1551 -2191 271 -1078 212 42 433
11.9473 2660 1040 2409 197 -310 977 -3844 349
11.9414 649 -1443 1105 -430 -3279 89 -1059 -371
11.9355 181 2285 564 367 993 -2308 2269 -1206
11.9297 1068 -1280 -1055 -185 3253 1456 -496 -17
11.9238 -1317 359 -450 1492 -1625 -92 -853 -668
11.9180 1477 599 1288 2193 2134 -1647 1215 -2231
11.9121 315 3288 120 -143 666 437 450 -725
11.9062 2033 1744 92 883 1398 1959 1000 1453
11.9004 16 -1193 -332 1939 1877 630 -440 872
11.8945 2906 2442 -614 346 -1766 -1292 694 448
11.8887 1858 2312 1663 2391 -409 -1281 1162 4429
11.8828 947 -1316 775 2550 -1139 1617 -505 2321
11.8770 1590 868 3411 -201 -617 3194 -902 3710
11.8711 352 -1142 409 608 714 124 2034 -3067
11.8652 -419 19 3141 -2576 -97 -1302 -584 1373
11.8594 1029 2572 -486 816 2172 1768 -91 2105
11.8535 -972 3117 644 244 819 1686 3025 200
11.8477 -138 1293 -894 -2130 1667 -156 2103 -1126
11.8418 -3930 838 646 2814 1202 878 1293 -137
11.8359 530 -1614 1192 -794 -255 1463 1787 -1096
11.8301 3419 -473 1666 1841 750 672 3109 1749
11.8242 1082 -2322 -706 2158 705 -1018 -549 -45
11.8184 1443 995 1910 -811 1893 -338 -34 3014
11.8125 526 206 99 -162 2753 2479 1490 691
11.8066 1978 298 1094 1018 548 2887 3047 2400
11.8008 -2454 3168 1469 -260 379 2122 2177 1698
11.7949 627 469 1663 278 -931 -519 206 914
11.7891 3810 -1638 1131 278 867 2446 2278 180
11.7832 -420 -1628 309 2286 19 1472 1478 1012
11.7773 2042 246 -827 -1342 1806 -126 -50 1668
11.7715 -767 3071 1416 -373 -533 2039 -1359 -545
11.7656 426 721 440 998 -129 235 2314 1386
11.7598 -257 2988 -2568 544 1419 1875 585 -160
11.7539 1296 127 1129 -3866 990 -768 1829 1539
11.7480 1511 -189 1069 -95 740 215 -889 3383
11.7422 1503 -2666 1758 -1673 70 -455 -384 779
11.7363 -70 -1754 409 965 3072 -203 -1365 -152
11.7305 1398 -907 -663 1250 402 752 -525 -820
11.7246 -67 188 -82 1065 1239 1241 1138 -909
11.7188 -1260 1621 438 602 -1320 102 -537 -877
11.7129 -525 -1821 547 2168 -642 561 -1218 1427
11.7070 3214 -1430 78 2555 971 592 -2645 194
11.7012 1797 2573 1381 -450 -610 -2308 -1193 2103
11.6953 248 -1588 2398 -2088 2311 -64 929 1439
11.6895 814 2327 444 -70 -572 -1746 -621 1893
11.6836 1658 2508 4511 1490 1172 -1551 57 3714
11.6777 1215 214 885 -2422 -830 -1543 -2785 1574
11.6719 1869 156 941 -1089 1100 1566 2723 2762
11.6660 1152 231 -817 -487 1347 1270 450 2917
11.6602 1394 446 135 538 -1002 -1048 943 -455
11.6543 15 2252 132 2392 409 2697 1118 -2215
11.6484 2279 111 -2524 593 655 -1513 -488 1243
11.6426 2540 2133 2256 2103 -3303 -667 703 -3609
11.6367 1578 1760 -740 -147 -986 396 362 412
11.6309 -1109 1004 -88 1849 893 -1802 -1740 528
11.6250 -304 1128 1632 453 -2104 -1369 1282 -1151
11.6191 2087 288 1203 -902 274 -4017 112 1285
11.6133 -921 -840 344 521 -788 1437 -2044 2095
11.6074 -1681 -810 2421 -1067 -2055 538 -955 -1250
11.6016 -627 -691 -1038 -1118 2842 -584 1881 -1682
11.5957 1241 -1451 -263 1378 -371 -2522 -403 188
11.5898 1285 -1072 -22 519 -2048 265 -817 1082
11.5840 260 176 -3196 262 -130 -990 -340 -1470
11.5781 687 1415 1321 -354 2945 1707 -996 217
11.5723 -2018 249 1494 2328 -201 -2257 171 2467
11.5664 642 2338 1667 2766 1324 -570 1095 4231
11.5605 -350 -2357 3581 1039 -513 -484 -1883 1482
11.5547 641 -523 -208 -215 2027 153 2496 -830
11.5488 -491 -297 -381 291 1965 2242 -1181 2344
11.5430 570 2810 175 -828 1611 1362 -260 460
11.5371 623 894 -2144 -1380 511 817 -359 -2212
11.5312 2442 -34 -1142 2819 2126 1984 1680 1281
11.5254 -1032 474 961 1378 1141 -1083 -479 -70
11.5195 135 -882 -2306 -1396 889 412 1298 -2402
11.5137 -196 1764 -2514 -1195 -2069 2245 475 -432
11.5078 653 293 1786 2182 1801 944 1574 1648
11.5020 2176 -2325 947 547 668 56 319 1171
11.4961 728 622 -1180 -1455 -692 -2244 -345 -844
11.4902 -2264 -2478 -275 -440 3690 1725 -742 -319
11.4844 -1086 -752 -96 356 -504 1663 1396 3364
11.4785 -1533 1444 -131 -1978 -22 -2033 390 4535
11.4727 2388 3161 2221 -1891 1051 644 1082 -1126
11.4668 -2542 3587 2219 891 -305 705 -1429 1870
11.4609 678 205 -214 331 629 -172 1874 746
11.4551 290 -861 2258 2376 1465 -2333 -91 1920
11.4492 487 2345 -226 1626 1219 -3237 -177 76
11.4434 -508 -907 2816 252 1616 -1576 -2684 -277
11.4375 1043 -652 1228 1636 -241 343 -674 2052
11.4316 3085 1177 -325 -625 15 1767 -703 2651
11.4258 -1400 421 2408 3108 -178 1621 4227 2185
11.4199 -2853 855 3997 -1309 1803 -2698 2814 -832
11.4141 1645 1800 -3738 -1712 928 -1850 404 -987
11.4082 2448 -330 -938 1397 2267 199 854 1173
11.4023 -307 -1347 1232 -95 -1618 1716 1086 646
11.3965 -696 100 1349 1161 -803 -919 948 711
11.3906 1707 -1302 1816 3079 1858 631 1794 -1495
11.3848 -230 3523 -2016 -1301 1669 -550 -412 -1244
11.3789 2958 -478 19 -2284 1590 422 1183 2806
11.3730 665 -1352 -1085 559 2416 -1362 66 218
11.3672 1422 -901 903 1611 379 289 1364 1308
11.3613 2323 -1182 2281 94 -1272 -394 -1414 136
11.3555 1987 -2938 -1337 1588 -15 1625 -1554 357
11.3496 -3472 -833 1546 2259 2883 353 -879 -142
11.3438 -2440 2468 2203 -927 3184 -1592 1276 -776
11.3379 -2170 1031 -1300 2227 -912 595 -281 640
11.3320 -511 1668 1353 542 247 3394 -606 -221
11.3262 1596 421 -2013 225 -138 -1053 730 -1267
11.3203 63 -1265 2780 14 1101 867 1496 212
11.3145 1569 626 -3230 907 -1499 1862 766 -121
11.3086 -3345 -2768 -1327 -130 -1631 3414 1126 306
11.3027 -1040 -71 83 -225 322 1646 -2202 778
11.2969 2091 -1614 155 -135 -1276 1863 -51 2156
11.2910 1056 21 870 -124 -2022 2572 989 2174
11.2852 -2277 2010 1676 378 -2740 590 -561 150
11.2793 523 -917 244 457 2630 288 3966 -1334
11.2734 235 2299 -1916 1369 1033 -463 80 2760
11.2676 -233 858 1089 2252 -2659 -1767 -1571 21
11.2617 1361 1688 11 2713 330 1477 -699 1691
11.2559 -638 2180 1735 3245 -196 -1301 1686 918
11.2500 -352 -1566 1641 -2483 -257 2046 64 1129
11.2441 1177 1332 2029 1422 -121 -1404 14 -543
11.2383 1049 2287 1616 -602 744 450 -264 2392
11.2324 1364 984 -1391 -3498 -658 2152 120 405
11.2266 48 1163 430 3014 261 49 2573 1569
11.2207 1487 1234 385 919 1248 603 -2374 2509
11.2148 -277 -410 -70 -640 -872 317 1769 1
11.2090 1153 -1583 1577 -1262 1493 -668 -457 -1440
11.2031 -1460 109 -1019 110 2148 -822 -32 292
11.1973 -485 394 793 2007 -647 120 203 2272
11.1914 -1058 700 1597 1324 -618 -1106 -2332 -357
11.1855 62 -1801 1709 689 85 -350 1155 16
11.1797 1204 -276 2030 -1998 -1162 3145 2012 2906
11.1738 -743 1538 1946 1817 170 2652 1069 -1497
11.1680 4141 636 2330 -595 -955 1769 1679 -671
11.1621 816 -1546 -2638 2084 -1271 1560 2044 1002
11.1562 2722 991 886 448 1076 975 -959 375
11.1504 -117 4710 2286 -737 1339 -2182 529 3171
11.1445 570 2371 -105 1134 1008 -2846 -756 3290
11.1387 -801 2253 3025 379 1953 996 -444 1325
11.1328 1100 -1032 -220 -1574 -58 387 -1021 -2350
11.1270 1458 2348 -917 556 -555 -3504 3618 882
11.1211 -1662 2351 1533 2568 1547 1243 2602 36
11.1152 807 -1180 -1270 763 797 -1930 1008 1965
11.1094 -1436 -61 3020 -825 1306 1627 717 668
11.1035 1300 880 673 -1764 816 -733 2694 3775
11.0977 2119 -2776 1946 627 -1183 -1374 2039 -522
11.0918 330 548 1863 -3564 2295 -766 -159 1377
11.0859 1000 -3017 1353 220 -1096 -469 -1945 1625
11.0801 2665 -495 -255 -1736 -609 -1079 485 3058
11.0742 2030 1917 -1006 1703 -629 -878 1549 299
11.0684 4178 736 -9 1571 -1288 1471 2794 246
11.0625 -321 2138 -1227 1012 -338 901 -728 1360
11.0566 1294 3084 -96 1114 -2191 -729 851 -1602
11.0508 291 -896 1170 1351 -257 1437 -382 624
11.0449 1234 1288 1342 2999 -517 219 -2292 1760
11.0391 -1231 -440 -316 1077 29 27 569 -50
11.0332 419 -1020 -373 -1374 1737 1806 1448 954
11.0273 -452 1286 -1870 -3299 -1329 2696 821 2782
11.0215 -616 1971 2840 1938 882 2071 -231 3100
11.0156 -1278 -685 488 -696 3084 1462 -645 2967
11.0098 2489 -114 2798 2232 -299 -383 921 2178
11.0039 2810 2710 -271 -2223 -2077 2720 2040 2230
10.9980 451 583 1184 1148 577 -1001 -1600 688
10.9922 218 2581 -1145 -2524 -2493 402 2970 -61
10.9863 -596 1023 2767 2085 1774 1852 20 585
10.9805 1076 3176 -2852 -364 1014 92 263 58
10.9746 -976 1212 2400 -84 1115 2121 -528 320
10.9688 -1499 2827 3036 155 3453 1742 -2289 1190
10.9629 833 1216 1481 -224 2161 929 3301 288
10.9570 -3303 3325 1290 -2301 -455 -736 1860 -487
10.9512 2200 -302 1898 -459 -1334 1344 107 1235
10.9453 -2020 -1100 -63 3413 1057 -2065 -4266 3246
10.9395 957 -1441 1939 1739 3679 750 -287 1688
10.9336 -1570 -213 -1041 -400 -1473 -1714 -1208 1044
10.9277 504 343 1166 1584 1175 3568 886 1034
10.9219 -274 2090 2606 -3996 1686 -1189 987 586
10.9160 -1432 -1574 74 4397 -1402 -150 24 58
10.9102 2147 3547 392 1081 -29 2823 377 1488
10.9043 169 2151 361 -806 3327 -2461 719 -73
10.8984 -907 3595 969 -160 -873 967 455 98
10.8926 -538 2748 788 179 -1421 -706 1561 -669
10.8867 1441 293 1055 983 -195 64 358 1447
10.8809 4073 1769 -1506 3791 284 -580 649 377
10.8750 843 417 422 2361 3008 609 2844 1864
10.8691 2255 864 774 1660 -980 548 -1237 1833
10.8633 782 1356 -42 -691 1905 -184 142 515
10.8574 1162 554 -1099 -1111 1987 -10 101 -865
10.8516 1862 1165 -348 -2121 3168 -379 -1284 -275
10.8457 -1246 451 -367 -1316 1486 -819 -2323 974
10.8398 -360 -1169 -2038 -590 -443 -262 -291 2362
10.8340 2054 935 1312 -221 -1720 1263 2530 -580
10.8281 -574 -585 -1521 1288 -1164 2528 2963 593
10.8223 400 -817 1821 592 -1769 -937 1168 -281
10.8164 1125 837 2619 316 2055 2124 2450 -52
10.8105 885 4283 174 -443 646 -1302 -814 -177
10.8047 40 1973 -1180 190 858 27 1578 3817
10.7988 -1154 -838 -302 -350 -347 1099 3081 4162
10.7930 346 -2614 2808 488 -154 2114 295 130
10.7871 -845 1849 1734 -811 -374 2326 -612 -159
10.7812 -684 108 1757 559 1961 1369 -2564 445
10.7754 434 -2028 1641 391 -290 1246 1911 1551
10.7695 -321 411 4141 -1476 576 517 2719 1389
10.7637 801 24 2328 573 323 721 1500 525
10.7578 855 1662 -616 111 575 1494 1308 -253
10.7520 -1080 -92 -282 1805 1423 565 -1148 -1489
10.7461 653 1385 1033 89 1325 -2486 2189 2725
10.7402 731 829 158 1811 -902 -395 1067 -1666
10.7344 1208 1156 452 -275 3089 -334 702 1679
10.7285 449 2042 473 854 459 1457 -500 1806
10.7227 2020 -1093 -1773 -1520 -725 1504 568 3293
10.7168 2836 -1826 -112 19 2879 1646 1861 -748
10.7109 3516 -1184 514 -971 -874 849 -874 1500
10.7051 1249 555 1427 2159 2107 -1236 1451 1810
10.6992 -92 -108 2282 1462 669 2621 1869 3072
10.6934 -110 1947 -2503 -494 2976 -980 245 -48
10.6875 1190 2183 2875 247 976 1786 2208 55
10.6816 2505 -1683 890 -1592 -220 -712 3129 2981
10.6758 1640 715 -2457 -2074 753 1567 1243 -617
10.6699 -688 1284 3879 1567 417 307 1136 937
10.6641 -1669 2787 1157 1309 -202 2135 1992 -614
10.6582 2014 -593 -2292 1730 -1013 -354 -928 364
10.6523 -63 714 1181 2919 1159 1237 1210 1694
10.6465 1825 907 -1268 -961 905 1 -139 -304
10.6406 -602 2115 1648 -1427 759 449 -217 2045
10.6348 954 586 -810 1901 847 900 -559 2715
10.6289 -4162 -1607 -2015 -1459 -1065 -284 -22 768
10.6230 2504 1323 662 248 1043 1686 -621 3099
10.6172 457 1758 -3193 763 -110 2519 1996 956
10.6113 1419 13 -879 2191 -1324 -310 -1269 -941
10.6055 -139 1730 -977 1576 -2309 -770 -822 1474
10.5996 2458 -2988 586 2903 514 2943 2209 905
10.5938 -1627 -512 2793 -852 -1144 -201 2373 636
10.5879 -1805 -463 1491 2201 2765 1247 1178 -971
10.5820 -365 -1564 265 1087 549 -929 1335 1854
10.5762 2333 -2751 -3140 -1151 1285 2023 1572 537
10.5703 854 112 -532 -998 5231 108 1315 1297
10.5645 1819 407 1877 3474 -474 -385 -1012 -51
10.5586 -1355 976 1481 2296 2409 -78 765 -708
10.5527 576 621 1230 392 -1114 1977 279 -1591
10.5469 -2078 1502 -2183 1490 2743 1280 1697 1333
10.5410 -410 812 -2305 1407 1440 704 2102 231
10.5352 -2067 2596 631 -432 -291 -64 789 -1406
10.5293 647 -43 1456 8 1431 -829 1014 35
10.5234 2072 1041 2002 -228 -415 440 -1049 78
10.5176 2361 -1114 -361 601 2912 3654 -338 -205
10.5117 874 -488 -2461 1358 1039 906 1297 762
10.5059 -449 1420 435 732 -1140 615 410 -789
10.5000 -651 -151 501 -444 -1142 592 -1318 961
10.4941 -791 189 2140 -2813 -1502 -288 267 -815
10.4883 -914 -432 -1010 631 -541 247 541 1485
10.4824 -448 -145 1107 -2711 566 -851 1774 -1
10.4766 -816 2026 -334 -817 1156 -2377 228 1523
10.4707 -1372 1880 35 -331 -1988 2565 2463 -24
10.4648 1025 -2333 582 1031 -645 -466 180 -727
10.4590 -2009 1585 1765 1335 1544 2006 8 -3915
10.4531 504 -351 -1243 1209 -1024 -1288 4017 -111
10.4473 713 1338 1358 321 1229 336 -194 84
10.4414 1388 1494 1121 -1760 153 1230 -98 1207
10.4355 652 2237 -2897 728 2051 1477 -277 158
10.4297 -35 1115 1577 -373 2051 1163 -2593 -81
10.4238 291 -512 615 406 345 72 900 -392
10.4180 1293 -2139 586 -229 -83 902 -452 -4220
10.4121 -1668 179 74 -233 -471 1493 495 -1055
10.4062 -789 1884 640 1019 512 796 -314 -960
10.4004 -954 -810 3087 1410 567 322 -1893 1608
10.3945 -2073 1996 -254 -1585 2652 -964 88 253
10.3887 -1708 1137 -1477 202 -1191 2825 552 2632
10.3828 -294 820 1276 585 87 2138 1042 584
10.3770 1699 -3533 -1042 1201 -50 84 -1688 -49
10.3711 2514 -247 -989 62 2044 -469 -1924 834
10.3652 -26 705 -2028 -1148 32 985 3062 2504
10.3594 2166 1897 2025 1431 1422 -88 -235 2422
10.3535 -1229 -364 155 764 -505 -187 -678 -612
10.3477 -86 5419 -1244 4087 -1342 752 383 1413
10.3418 43 -1098 -326 8 -1701 356 630 -1725
10.3359 -1460 1669 -908 -483 -383 -443 1276 822
10.3301 3616 -47 1034 -534 1897 -1752 -738 168
10.3242 4600 3756 3420 472 -1792 1305 2080 -505
10.3184 3393 3398 -2003 -109 101 113 269 550
10.3125 113 4304 -201 -1312 2233 1971 -1189 -819
10.3066 -804 -2689 -1454 1165 -1469 124 80 -378
10.3008 1197 751 2336 1002 -396 2968 946 1224
10.2949 928 10 -886 2328 -595 43 1801 1971
10.2891 531 3449 172 3969 2538 778 153 2163
10.2832 -2018 1557 1511 2851 2583 950 1207 -924
10.2773 1316 -643 -1523 3103 3139 338 959 4050
10.2715 -1504 2753 39 1443 387 2793 2302 265
10.2656 2279 1919 2600 -1058 1796 513 885 -1801
10.2598 3703 420 1183 -1691 206 772 687 -1148
10.2539 1026 -99 1845 -1189 2258 -1030 -1164 1205
10.2480 1410 1147 -337 74 -857 2171 -2130 -1282
10.2422 -1240 1276 -1718 1686 -2046 -2068 993 1107
10.2363 -47 2502 -149 -269 229 2499 246 3311
10.2305 2554 2127 1859 2447 1221 -3021 773 308
10.2246 -1246 -2292 710 -1136 503 -725 1002 -946
10.2188 852 436 -186 108 904 -3459 -2372 647
10.2129 540 858 1008 -955 2438 1631 1012 137
10.2070 -562 -387 1066 656 1734 863 -160 2243
10.2012 -1619 -1509 1071 -219 -1631 -1703 504 2541
10.1953 2624 346 115 -732 3330 370 -58 1644
10.1895 2220 555 2343 -1374 1173 1396 1119 1490
10.1836 768 1364 -2637 -587 1780 -1151 -821 3503
10.1777 606 912 1066 3093 109 -728 907 2601
10.1719 -2155 311 -86 713 1486 970 -1845 154
10.1660 307 432 2093 21 -444 259 548 1545
10.1602 -2069 -1530 382 1890 420 859 3113 678
10.1543 942 443 1962 1270 128 1569 1177 -211
10.1484 1617 3572 -1127 -1090 338 207 865 456
10.1426 747 2192 2423 -2616 1324 552 1317 588
10.1367 1047 181 -451 266 1720 567 401 2380
10.1309 1800 -806 -679 255 1237 2057 -2032 2504
10.1250 596 837 1749 925 801 1987 2275 -1146
10.1191 -1851 -1060 906 129 211 -230 -754 1300
10.1133 447 956 1313 2714 3679 -363 2435 787
10.1074 1171 2203 -364 322 1969 1409 3229 1442
10.1016 707 342 1409 -2211 2442 1002 -410 656
10.0957 1321 -1251 1848 -2732 2681 94 888 121
10.0898 -383 1959 -922 400 1320 -1299 1436 -823
10.0840 1824 7 2447 428 -987 1966 2305 1925
10.0781 -1685 -1082 1901 1227 56 237 766 -2700
10.0723 -1284 -1299 2063 -54 -2619 277 -25 -570
10.0664 -1656 -853 952 -145 1650 2495 -3 -1858
10.0605 -961 611 1626 229 435 839 2324 1575
10.0547 -38 -387 455 -403 -968 2050 794 -1110
10.0488 1120 -1070 -950 -1922 -1268 -227 873 351
10.0430 918 561 -183 2241 -1161 -1017 3547 839
10.0371 820 4426 -1126 2899 438 200 -982 400
10.0312 1602 468 -219 1083 2378 569 -137 -98
10.0254 1070 -392 2586 -346 2098 225 1592 -1223
10.0195 178 -990 -677 429 -1262 3435 3012 1853
10.0137 515 -377 -2066 1719 -1268 416 -406 493
10.0078 3002 370 208 1866 -282 -2408 -652 124
10.0020 -673 1974 2284 -1017 562 814 -128 -464
9.9961 1150 -104 3209 454 512 783 829 -139
9.9902 1369 1723 830 1108 -1567 -149 631 12
9.9844 2125 1054 464 -505 -82 107 2969 -1296
9.9785 1889 -62 2919 1890 -780 1018 -1598 1556
9.9727 297 -1071 429 1371 4147 1769 1066 404
9.9668 -2846 -1707 -3021 -1310 1980 2410 920 -103
9.9609 1546 4001 738 2583 2529 -726 701 -732
9.9551 998 -144 -887 1541 406 141 1799 1173
9.9492 2357 3247 -1357 1213 -2136 1849 3395 -932
9.9434 2318 1525 1085 -2782 -1065 -64 606 692
9.9375 1718 703 238 -975 -632 210 3847 -43
9.9316 391 1992 1707 1446 651 2933 -355 2628
9.9258 2838 911 -287 -422 916 -2449 2438 -767
9.9199 -1323 1264 620 -781 2481 -1242 -345 -1855
9.9141 3127 1390 -1635 1274 -397 -755 258 -2427
9.9082 804 513 2751 -797 -1574 -915 -361 1768
9.9023 3855 1392 1160 -1169 -1601 -1293 1503 2208
9.8965 189 -1431 1665 355 -596 -1830 -2231 2779
9.8906 -195 967 1243 1839 3842 251 2311 -781
9.8848 -1626 479 -2421 -1766 -645 1456 172 -2159
9.8789 465 -358 -268 -358 350 1663 1281 567
9.8730 -736 -1832 3368 2784 -2034 1083 1117 683
9.8672 792 -95 2660 1037 2020 948 819 -151
9.8613 2335 -2224 2570 203 909 -270 -2209 -848
9.8555 1137 -162 1243 -804 -2144 317 -128 -634
9.8496 2667 -2199 699 80 2481 714 1046 901
9.8438 850 188 278 1782 3838 -966 885 -1095
9.8379 3389 3123 884 2645 846 -1234 3195 -1809
9.8320 -1043 2286 1848 1418 -37 -533 -1242 2338
9.8262 1350 3817 1203 1353 -288 -185 1286 -665
9.8203 2083 2128 -1354 1452 906 849 22 2261
9.8145 852 1502 1105 -427 -1209 3019 3109 496
9.8086 2149 2501 2796 1976 358 1571 -213 902
9.8027 -863 -1889 -814 -1788 1163 1545 1226 -607
9.7969 493 -1409 1158 1386 3394 -968 309 378
9.7910 4045 903 1229 -1682 334 3806 2583 1546
9.7852 -15 -804 905 -366 3920 -288 -180 1669
9.7793 914 -789 -1420 -682 2896 -315 306 1914
9.7734 2945 1763 1129 -350 -829 774 458 890
9.7676 -2512 -1528 1728 2742 801 -1305 1442 -751
9.7617 126 145 1678 2167 1464 -889 2133 -176
9.7559 -1683 1938 3366 -1009 -28 -345 -158 2320
9.7500 1765 819 804 -574 -228 -490 1438 1538
9.7441 11 1626 -714 3653 -1034 -261 424 1770
9.7383 947 -753 1415 1731 -1116 -2624 1408 -985
9.7324 2067 3260 2457 1023 1824 303 -732 352
9.7266 -85 900 -1188 -1034 685 693 612 1937
9.7207 -1634 1483 153 487 2149 730 1872 2912
9.7148 468 -2170 -227 -152 861 -659 752 901
9.7090 -2346 2911 -348 -1480 -633 1636 5213 -2446
9.7031 -464 2265 -470 621 -108 492 975 -926
9.6973 -939 -1615 871 4166 2261 397 2464 1477
9.6914 82 -409 752 -663 499 1171 -1308 -1174
9.6855 100 -664 393 1016 1057 1565 652 965
9.6797 368 665 428 537 41 998 1757 2511
9.6738 2884 1690 -369 -1404 -1815 79 824 2045
9.6680 677 556 -1252 1590 3339 -76 3703 1643
9.6621 -690 1485 896 1094 -1254 1100 1868 -1234
9.6562 1263 2426 1028 -479 236 1658 1375 394
9.6504 -415 -509 263 -1203 1119 3457 234 469
9.6445 721 1436 151 1346 -714 -1082 -339 1292
9.6387 -418 -550 880 -2434 -131 -2941 -385 3319
9.6328 -1915 2197 -369 -286 -16 3448 -315 634
9.6270 -182 144 1623 980 704 -468 825 219
9.6211 472 662 -244 -1373 1135 -2149 1861 -318
9.6152 -830 2071 -436 631 -818 1159 1016 149
9.6094 204 -1777 2212 -456 332 -194 888 196
9.6035 -26 85 843 2813 -1154 2070 671 1207
9.5977 -472 2006 1650 -2253 -2044 3027 -336 176
9.5918 -1717 494 608 -208 2431 218 1775 584
9.5859 794 110 -309 2637 2208 2259 -457 -85
9.5801 763 5 1436 2937 -293 -79 -1727 2367
9.5742 802 1032 -465 557 86 -476 1318 2468
9.5684 2378 73 5080 -428 568 -1411 126 986
9.5625 -379 382 -911 -104 -1291 -138 -2646 -717
9.5566 -158 300 2393 -1089 -546 1749 -833 -21
9.5508 -2019 -4099 3720 1631 3534 363 -1605 1054
9.5449 -868 851 1108 1385 -659 724 1086 2534
9.5391 -27 3325 1466 1116 -376 1027 1458 -941
9.5332 1489 934 142 -672 236 1533 3071 749
9.5273 38 1549 1956 1644 295 -3075 807 437
9.5215 -1176 595 -955 70 2360 -333 -2987 2059
9.5156 362 531 -2159 -2229 -20 -269 766 208
9.5098 1015 -109 1062 -237 1245 1461 -1749 495
9.5039 -21 508 3260 -381 275 862 -2691 2631
9.4980 1428 293 1896 4444 -669 2519 3083 -657
9.4922 1245 -1392 944 -473 1410 -34 2391 2352
9.4863 3081 418 92 102 -371 388 -935 165
9.4805 1750 2005 1167 -1740 2795 3270 1842 -31
9.4746 1521 420 -1774 2242 1844 1328 1588 620
9.4688 -1201 2790 83 82 1285 -1866 234 1423
9.4629 221 -2960 814 1874 -1382 3960 832 648
9.4570 1250 2077 958 470 1097 -1192 3539 -1902
9.4512 330 -557 753 434 2102 440 169 3640
9.4453 -923 572 26 2028 579 2370 -522 1018
9.4395 1417 590 1016 -1752 1315 166 3364 -837
9.4336 -1634 3574 3443 265 -2284 -503 1012 1219
9.4277 2045 2329 1514 315 2596 2925 1124 18
9.4219 1744 812 533 741 2300 2814 2084 1206
9.4160 64 -1760 267 1308 -706 1195 -620 961
9.4102 -3450 1191 1644 615 1590 -872 690 -34
9.4043 667 555 815 -535 -84 -2071 198 -3153
9.3984 1066 3450 -143 -81 692 1202 1661 -210
9.3926 125 1190 1188 -1244 1313 3126 -2028 -41
9.3867 126 -970 -1401 3050 854 1193 2006 -1211
9.3809 2403 -363 2157 556 2610 1425 548 2060
9.3750 -339 1545 -1452 353 3428 1927 -848 2569
9.3691 133 1185 52 1506 -179 2664 140 -316
9.3633 -10 -1429 1599 2248 2630 1337 367 2556
9.3574 2735 -330 -1254 -131 589 2251 2211 1153
9.3516 2304 214 447 -2669 -158 248 2351 455
9.3457 81 802 80 -2298 -374 374 303 -369
9.3398 -68 1475 -1574 201 -275 244 668 1618
9.3340 -3286 314 -1093 -1896 850 748 -473 268
9.3281 -637 2678 3127 2278 -1149 1618 1086 710
9.3223 375 199 -278 -412 -593 4125 1406 -405
9.3164 -371 1398 3277 3109 -816 -1360 -342 1040
9.3105 -198 -256 3660 -1299 1591 361 -283 3432
9.3047 -1302 987 338 -435 -40 715 4437 1329
9.2988 205 -1489 921 1775 4761 -1747 -1555 -2083
9.2930 -1709 2346 424 -480 794 452 370 2308
9.2871 1864 41 2427 2095 206 -93 17 -807
9.2812 -2564 2267 2611 -3013 132 -844 -9 1164
9.2754 2206 1316 1636 2243 990 2295 1918 -430
9.2695 1702 -6 2130 2334 -1466 1475 -839 -188
9.2637 -114 1369 1583 518 -2499 1339 2301 -3332
9.2578 -303 -285 948 166 2102 -5 -743 -2318
9.2520 -2185 245 1520 -944 1535 -26 1873 2538
9.2461 1269 -805 2135 875 664 1147 1609 2329
9.2402 -1370 2414 959 2580 434 1793 2029 2571
9.2344 134 2766 -143 -1190 -614 -1357 2689 2058
9.2285 -2158 259 972 908 -201 -447 1853 456
9.2227 -736 993 -390 202 1740 281 4375 -1526
9.2168 -877 2926 899 333 2028 308 -857 2871
9.2109 753 884 855 522 -682 -904 -1883 1924
9.2051 713 274 -1608 -1426 -15 1075 334 456
9.1992 -735 1756 1016 2521 1374 -918 -358 324
9.1934 2271 668 572 2698 1908 1552 -2031 311
9.1875 3559 1590 2485 3343 1774 -2338 1136 299
9.1816 -718 2114 -496 2503 1274 -156 -672 3347
9.1758 281 1122 557 -668 102 304 -1943 -512
9.1699 -760 1068 807 -1235 -335 727 -637 -1960
9.1641 1870 585 86 -115 1090 -44 646 2239
9.1582 2690 3067 -906 522 -1327 -1011 -1496 -10
9.1523 -87 -876 437 1345 -179 -664 1733 237
9.1465 912 -998 1421 1818 -976 -1029 -33 1462
9.1406 1702 2254 -792 -2333 -757 671 1226 -1446
9.1348 499 44 1251 -758 305 71 955 585
9.1289 1156 876 1802 -862 5685 2659 -1473 1542
9.1230 -150 -612 2379 -2896 -597 1339 -1918 1907
9.1172 -108 577 2788 728 2114 2639 -250 -19
9.1113 2617 1514 2841 4150 -743 472 1281 -1373
9.1055 -849 -1634 158 720 3077 4477 353 356
9.0996 1014 1159 498 2771 2341 -274 -2800 608
9.0938 2772 2940 -98 -272 692 -336 -806 -321
9.0879 3343 2793 1068 1937 -188 -312 1639 1300
9.0820 -1355 2491 -2665 -357 2389 2747 4859 208
9.0762 379 1247 732 -1019 156 66 2056 254
9.0703 772 550 131 2215 -108 1344 2466 357
9.0645 2264 -111 1076 -1503 2096 2359 556 -1791
9.0586 119 617 2495 -2864 996 772 -1638 1608
9.0527 -2039 1458 2064 -788 -1013 -846 -105 1325
9.0469 1575 -28 1431 -1014 417 -2040 2718 -1325
9.0410 -739 3105 2056 -981 1977 4717 1040 -814
9.0352 -307 3196 -187 -631 4386 -1919 -634 -1956
9.0293 -456 -135 1294 -1626 1611 -349 2736 -274
9.0234 603 -2288 -2159 1392 3684 -1928 161 282
9.0176 649 1588 1524 1726 -3269 -1778 3869 2457
9.0117 -1983 -188 1255 -640 -128 -1771 -1028 3594
9.0059 761 446 1502 -578 1099 459 1586 -902
9.0000 308 2317 1398 -772 -2396 1452 1167 -294
8.9941 -917 488 957 1537 1290 1184 -411 1139
8.9883 495 -56 845 4421 -265 188 718 349
8.9824 320 1369 -830 1487 2115 -283 3643 -1636
8.9766 1281 796 1063 -563 -1530 1099 -2102 1928
8.9707 1754 795 1675 1040 960 568 -413 314
8.9648 551 -296 530 -1214 1194 459 -2657 116
8.9590 -965 393 3100 -701 904 -900 28 1679
8.9531 1196 502 2004 2194 3700 -2185 -1705 -1278
8.9473 -581 1965 712 -321 137 -904 1952 999
8.9414 449 -2082 -357 -1602 -282 1545 -692 1561
8.9355 -835 3374 340 -215 1751 1870 -901 -1146
8.9297 -1163 1473 -384 -165 1074 -692 1173 1221
8.9238 -410 -761 2329 -1935 888 3199 -188 -1154
8.9180 1520 579 -745 1347 347 2666 1661 -745
8.9121 1628 1176 288 -1027 1704 930 -693 356
8.9062 1007 2020 3007 2615 -125 2127 -1017 391
8.9004 1372 196 -266 640 2779 1480 -639 2731
8.8945 197 638 912 776 -751 -91 280 1832
8.8887 -2122 1854 2779 -1152 588 -151 -1321 2617
8.8828 1306 2916 2745 2347 548 1765 1316 449
8.8770 1622 -130 454 1432 1978 1127 -612 1054
8.8711 3764 747 1769 -1156 1169 1256 -307 695
8.8652 403 1644 882 -1601 1573 4128 -1505 -1006
8.8594 -185 -862 -944 910 3868 2100 327 1031
8.8535 1782 1508 224 -1111 -976 3461 1689 1106
8.8477 1868 -513 13 744 -1373 -773 1000 -13
8.8418 -1874 -584 1129 196 2618 3183 -551 1674
8.8359 502 -434 1775 2143 -1982 -1747 2349 1898
8.8301 2022 2010 -353 -608 -608 1567 1900 -2007
8.8242 -1746 1363 -873 1248 -860 -815 -1034 1069
8.8184 1485 -414 37 23 1058 552 787 -274
8.8125 538 495 413 1000 -1222 1598 2498 821
8.8066 -1866 2378 336 833 805 3668 -871 747
8.8008 133 1755 1859 2104 1144 1254 1288 1491
8.7949 1402 2 4217 1320 -3346 875 1013 -1025
8.7891 575 638 -353 1151 -1530 2660 -2009 -1817
8.7832 962 -2299 2014 1754 1762 -1714 1286 -820
8.7773 1871 1939 -1697 -430 -1534 2988 2400 -1123
8.7715 467 -3915 1789 1373 -847 1180 -101 -823
8.7656 364 871 2277 1134 141 1596 1216 694
8.7598 1350 2159 818 2273 588 27 -1124 -1199
8.7539 4586 -2088 794 1034 -496 -889 2295 -505
8.7480 720 421 -358 808 864 1149 2031 122
8.7422 1375 -1852 1076 -567 807 -1018 2700 -283
8.7363 3597 -1601 -257 1723 3458 674 -41 18
8.7305 -1955 -1872 4733 -1449 32 1597 1458 641
8.7246 528 2727 4073 760 -1143 -1751 231 2408
8.7188 1245 253 1378 1027 898 1524 1484 796
8.7129 -601 1111 -1047 1208 103 -1276 4175 -32
8.7070 2091 -456 696 2270 -1173 721 2702 -200
8.7012 1416 291 -124 -280 765 643 -31 1321
8.6953 421 1017 1739 836 360 -1072 43 -2657
8.6895 -1367 636 1063 1954 603 -2005 1234 1404
8.6836 -960 1018 -1637 -1351 642 1299 1732 1311
8.6777 106 1187 1326 -606 634 1854 2201 -781
8.6719 912 -91 1390 1960 -162 813 830 1206
8.6660 1408 1013 679 1900 -3793 -2659 -903 -132
8.6602 87 1102 -254 -762 -181 -633 948 1944
8.6543 1327 1592 1578 340 -2161 -1343 -449 1392
8.6484 1256 1132 2154 -105 431 1030 429 -146
8.6426 -1881 649 1594 -2174 592 1506 1596 1524
8.6367 93 1465 1756 1708 -70 1018 910 49
8.6309 -499 1588 -1002 1921 -1391 427 560 -25
8.6250 2417 241 662 -365 -1905 1070 -154 2379
8.6191 1914 -686 -1662 286 1662 84 3067 241
8.6133 -82 1206 544 2166 222 -832 1220 841
8.6074 1203 409 3357 -1267 -1052 -775 2364 -1631
8.6016 58 -1807 1623 115 -1478 1982 22 -751
8.5957 1100 630 960 1422 -1241 3640 3209 500
8.5898 -2393 2289 -283 2255 355 -722 -245 -2581
8.5840 -888 2728 3588 2057 -741 921 1277 468
8.5781 -3074 278 -201 1455 -1500 1221 331 4226
8.5723 2906 -689 -911 368 759 2030 -674 928
8.5664 414 613 1520 -1731 798 -25 490 1699
8.5605 -2888 -883 -1142 2859 2811 1184 -430 1543
8.5547 -882 -1818 2048 19 -1015 548 2450 1271
8.5488 486 -2721 1090 2504 926 -318 361 2176
8.5430 -592 -1991 106 2615 4227 -238 1351 -733
8.5371 116 -992 -764 514 3139 526 281 542
8.5312 -676 3310 3267 2327 53 874 -1974 1129
8.5254 2311 1186 50 -845 81 2617 -80 439
8.5195 2943 -1192 -2646 -68 357 383 2722 -149
8.5137 829 903 664 -822 2150 2299 -1989 -304
8.5078 -667 -335 -1536 4748 1168 484 3179 511
8.5020 612 3270 -595 -1057 1528 -270 1438 -1124
8.4961 -2242 3434 2424 1562 946 199 1816 -766
8.4902 -574 225 743 -181 -780 783 -325 349
8.4844 406 584 -761 -768 1458 1678 -2005 1673
8.4785 2655 545 961 -758 3638 -1414 2729 562
8.4727 1555 1177 1000 2678 -267 1959 716 -19
8.4668 1727 852 -23 -231 2307 -152 -1055 109
8.4609 2630 1458 -1366 -566 -926 3369 -1626 1837
8.4551 2632 672 1504 252 929 657 -1205 2738
8.4492 1088 2810 1006 -409 2205 -599 -608 1397
8.4434 2008 3156 1074 -279 1447 954 -454 1538
8.4375 3005 -331 2206 3419 4337 -268 -1503 659
8.4316 1451 131 1892 637 1 1561 -28 -1677
8.4258 796 1698 3372 567 333 3381 197 -866
8.4199 2940 -233 40 3901 -1010 2680 -882 753
8.4141 1193 2377 -625 416 863 2515 -1007 1529
8.4082 907 -2793 -1368 498 1495 1224 -797 1853
8.4023 1103 2436 592 -1719 1892 -965 691 -1484
8.3965 2343 1969 113 -465 1066 -717 2552 -1761
8.3906 -1694 1923 683 1635 1050 160 -357 -1583
8.3848 -491 716 2129 976 -703 1633 1010 1841
8.3789 754 1490 -921 3273 1967 -677 -251 -1184
8.3730 -767 -147 -6 -626 246 1656 -1288 2190
8.3672 3191 1281 1354 -1497 226 -20 166 1335
8.3613 -968 657 -2803 3214 -1940 2167 239 1592
8.3555 -480 1658 14 623 -1880 -2313 2750 2448
8.3496 133 1165 1191 -3244 256 -1996 2218 -1637
8.3438 -1019 1023 2853 1902 3762 -1401 2242 131
8.3379 715 -808 1235 -119 1587 1040 489 1591
8.3320 -1804 708 -2613 91 788 845 -149 2826
8.3262 800 971 -116 3770 467 1564 134 2375
8.3203 1286 -1469 1757 -553 906 1626 2607 1328
8.3145 9 1913 335 972 -24 1206 2478 3296
8.3086 1642 2761 -668 1005 2445 339 1597 174
8.3027 -402 369 840 156 901 4291 -962 306
8.2969 -1411 4222 2391 376 -126 733 -188 1110
8.2910 -684 129 2244 -924 1433 -1519 744 2397
8.2852 -200 2047 3289 2085 4177 -87 946 1087
8.2793 -2224 1180 -988 -696 1059 780 2242 -5
8.2734 -951 1107 -707 1332 1651 1420 763 1378
8.2676 -1327 1625 2763 -723 1045 -553 118 74
8.2617 177 1871 -3063 -1599 1644 897 -1669 1208
8.2559 1250 -220 4177 751 1890 1692 665 1501
8.2500 128 -1013 -293 1652 3176 -987 3396 1607
8.2441 1238 1605 -1397 938 -14 473 3196 363
8.2383 -2381 -1947 2679 650 -1288 1527 659 303
8.2324 142 -947 32 211 2471 1195 -186 3259
8.2266 2598 307 1699 133 -104 1779 419 976
8.2207 -896 1457 2106 439 607 4528 702 127
8.2148 606 1927 865 -555 2763 -407 2628 -1476
8.2090 -175 -950 1525 145 -960 -112 255 2544
8.2031 1014 2848 2144 2574 -1905 -2113 -895 -1067
8.1973 -1364 -921 -1251 -2681 2594 -1005 1252 872
8.1914 1371 -2461 1778 3334 2264 734 769 3938
8.1855 1789 1629 1813 -1005 1801 -759 1776 1417
8.1797 -451 -557 2612 633 -1170 1517 -294 1655
8.1738 281 2143 2081 329 1527 -597 -2366 2163
8.1680 199 -564 2787 3259 -314 3063 1775 -269
8.1621 290 1154 698 -109 439 366 2224 2581
8.1562 650 1119 1461 1488 1716 583 1238 1525
8.1504 -211 1620 -696 -234 -1489 -405 425 418
8.1445 2085 2395 -343 606 2327 -524 -1088 416
8.1387 2719 -513 437 -1597 -873 84 -2160 -867
8.1328 39 410 -115 3173 772 1707 1772 2954
8.1270 759 -2456 -1190 -1390 948 2828 -1595 869
8.1211 1412 212 2756 247 1903 1782 -1088 -2616
8.1152 1425 -1313 844 -431 1437 142 258 338
8.1094 1097 200 1833 -1323 -566 535 -170 -974
8.1035 -147 -301 1758 2107 411 -182 1023 -1353
8.0977 1264 699 -2581 -140 3568 1591 -412 -787
8.0918 -1180 1184 978 658 319 1181 1559 1066
8.0859 -1063 -179 1472 2792 2324 101 -1011 3118
8.0801 2174 -229 3089 2505 -207 465 1281 350
8.0742 -296 3766 -717 -644 -1210 242 -710 -86
8.0684 770 -911 1109 -1103 -380 21 350 3540
8.0625 2795 -3241 3657 1341 340 -1000 3307 -263
8.0566 407 -1663 -1173 -2534 -714 -52 773 2571
8.0508 2717 1696 649 2972 856 -653 1978 -27
8.0449 3415 3644 16 2073 2433 1672 2286 455
8.0391 -830 1909 977 -1354 740 -97 3589 -3396
8.0332 2843 947 2231 1240 -867 2989 -545 3101
8.0273 -508 -2914 388 -1363 929 1683 -1278 2364
8.0215 394 -465 1885 2604 920 -1334 2589 1597
8.0156 -990 -102 777 2471 -1082 1290 3732 3301
8.0098 -366 2826 -58 1453 2061 1638 2655 2359
8.0039 1850 650 -559 595 2736 964 92 -632
7.9980 -898 1451 -907 1249 610 3164 1161 -1205
7.9922 1408 1028 148 1211 391 3626 1865 1464
7.9863 -1039 2122 3003 -246 -610 -981 -233 1397
7.9805 43 -608 2955 932 144 576 124 1118
7.9746 1160 -2557 2317 251 -549 1580 1915 909
7.9688 998 -994 -1550 1988 1149 1582 -159 1574
7.9629 4082 -848 -765 257 3314 4116 81 2794
7.9570 390 522 -522 532 -2802 991 557 -1883
7.9512 738 -758 203 -955 1749 -1688 -382 1321
7.9453 1733 -223 101 1657 3394 -273 1438 1203
7.9395 -91 2557 2418 714 -692 1961 896 2541
7.9336 -2462 -317 -566 1455 908 670 1915 -824
7.9277 -489 220 1564 -2271 2184 -803 1036 2296
7.9219 1584 2460 496 -521 2064 -315 940 -1101
7.9160 2932 -1278 12 -134 3391 1988 -277 2669
7.9102 -92 49 855 -158 947 261 -1145 3080
7.9043 -219 -141 2299 1143 3194 462 1611 2428
7.8984 1544 -1389 -1680 748 416 1549 -188 -879
7.8926 356 -2033 802 -862 926 4862 -1577 3392
7.8867 -696 2621 -781 2401 -466 -1223 2602 1245
7.8809 2325 -128 220 1171 828 728 1037 1377
7.8750 -529 2012 -579 1667 -687 -395 487 2423
7.8691 1636 2729 2893 627 3840 2381 1294 1635
7.8633 50 3584 1123 462 594 627 649 505
7.8574 2110 -119 1251 2090 1537 1831 201 245
7.8516 1513 -1191 -106 2061 573 -158 -955 720
7.8457 1188 309 1174 2714 1453 1606 927 3693
7.8398 -439 2128 -164 298 1402 870 -1791 2310
7.8340 1410 -913 798 1239 2029 3056 -80 -638
7.8281 -418 447 750 -2472 1169 -1077 425 1792
7.8223 -553 356 -1574 -117 -874 1710 -1937 -1176
7.8164 1055 -1090 2415 1041 928 1392 -1235 1517
7.8105 2328 7 -1651 -66 -1403 1469 1625 3090
7.8047 -498 -1000 -1689 -1139 3477 867 5 -551
7.7988 1339 -936 447 2653 953 -1169 -663 1172
7.7930 340 1049 2040 1258 501 -908 330 817
7.7871 1703 581 -698 3727 -340 4100 614 -387
7.7812 479 -97 2277 -537 -484 -2049 238 1247
7.7754 159 -725 -1711 2010 897 1664 -982 -438
7.7695 59 885 -1706 2495 765 -235 -91 -1029
7.7637 2059 234 -801 -308 1503 -1109 861 2218
7.7578 -150 -29 2743 3989 964 -268 214 1526
7.7520 1987 718 2880 2635 589 538 545 1563
7.7461 -1056 -239 12 517 189 -94 -1152 -1133
7.7402 328 -1252 1728 2712 2114 4231 1310 288
7.7344 -2130 -890 734 855 -796 -1064 1661 -142
7.7285 -732 376 418 1485 2252 -645 1645 2155
7.7227 254 1192 34 1020 2132 4058 2507 -1360
7.7168 692 -512 -701 2570 -631 -1778 788 -1116
7.7109 -981 -1438 -310 1241 -2453 52 -2 -54
7.7051 -624 -1565 -634 -1496 3145 1565 3544 -283
7.6992 604 253 487 311 1162 731 -1033 3080
7.6934 1214 1580 1803 3288 479 402 -820 -586
7.6875 -1377 -1445 2 -826 -550 -588 1011 4751
7.6816 798 1471 331 1588 2249 -259 -304 1673
7.6758 1941 67 -814 1403 610 -128 2923 1630
7.6699 -167 2469 1608 926 1684 3410 -541 -314
7.6641 836 1278 83 164 -1138 1332 811 716
7.6582 2758 1359 2856 1806 -1824 2580 1366 -1449
7.6523 1346 -473 1951 1653 -65 2611 1986 4698
7.6465 3078 661 -461 -832 332 1935 -127 734
7.6406 2375 3642 -1245 -130 48 -1052 -1686 1808
7.6348 1416 598 -981 1501 -898 591 612 -1453
7.6289 1442 -1070 2279 4744 -11 -2116 -722 4093
7.6230 1319 1274 2575 1370 -1196 3276 3271 2727
7.6172 2013 1243 -1807 1830 12 968 45 621
7.6113 -2126 -1159 2150 1542 132 734 -1474 3621
7.6055 1731 2478 -1403 777 1651 -784 1078 -2651
7.5996 784 -915 1438 3306 958 1271 726 1015
7.5938 -759 1354 259 -120 1713 -85 3168 2188
7.5879 -1390 349 1206 1569 1130 2298 725 3356
7.5820 1863 2343 2006 257 1050 -2674 1152 -1695
7.5762 1025 2877 1777 1147 72 -646 1165 784
7.5703 -27 -1098 1293 -755 436 -2682 1637 1910
7.5645 2315 -1226 -1851 -327 2672 505 450 2515
7.5586 477 1988 246 688 2132 1263 2110 1947
7.5527 412 3107 4772 2232 42 1955 1235 -3289
7.5469 -1754 933 2176 1410 -1985 1305 -590 1610
7.5410 -956 1262 2332 1656 46 1466 476 494
7.5352 3493 4191 -839 2933 3687 253 966 140
7.5293 1455 -106 1063 769 39 -640 647 2143
7.5234 656 168 745 -405 -2490 2431 3594 752
7.5176 1499 -473 -1094 -945 985 3133 1791 2768
7.5117 4404 -178 1360 -12 36 -6 -1304 2035
7.5059 2170 2550 -1981 1379 -1633 -904 3324 -119
7.5000 619 115 991 1284 -160 329 162 2143
7.4941 1375 1883 219 3832 888 1535 1573 521
7.4883 2049 190 -860 -363 2276 -271 2136 1647
7.4824 -183 2340 -3179 -241 -433 637 -529 649
7.4766 1197 1342 330 60 1007 2043 -2088 2326
7.4707 610 2891 -1352 -1335 -1395 -1883 311 970
7.4648 759 778 1969 343 -1362 776 1872 1717
7.4590 -1693 3557 2411 3029 -371 -1332 1409 -832
7.4531 2620 319 488 1199 2092 1976 535 181
7.4473 3048 1705 995 892 -2657 -1542 -2092 -1718
7.4414 1079 3162 -648 283 -1218 -343 2038 2662
7.4355 1077 372 4138 1418 -43 -619 3082 1307
7.4297 1218 -615 -749 -1243 2574 1229 1626 2691
7.4238 646 1536 -54 356 -629 -148 877 -348
7.4180 2146 -553 1684 -1277 1528 1602 -35 2183
7.4121 -683 2882 749 579 2943 -355 -1796 -441
7.4062 2678 971 849 -2385 -213 4342 -2304 -2307
7.4004 -2273 -225 -771 -25 2276 -962 -868 231
7.3945 -555 1042 -1094 2034 3069 2422 1162 -151
7.3887 199 -1144 355 529 1864 762 3966 -2373
7.3828 1168 -608 1265 959 1036 -2247 2649 -881
7.3770 275 3823 -1232 -308 3137 2577 -166 2179
7.3711 605 -745 -75 -2257 1126 670 786 -3421
7.3652 2281 -857 1057 1371 -1223 -622 544 584
7.3594 1878 3547 2211 1373 616 2366 3572 -700
7.3535 266 979 907 1171 -1629 2318 -62 1157
7.3477 1048 1428 327 -526 2812 -249 -1071 457
7.3418 2023 869 585 1088 2388 724 -713 2454
7.3359 1526 -699 242 -1595 2689 2372 1054 -2252
7.3301 1160 2142 -1313 1794 898 303 1889 1536
7.3242 3393 -46 413 1293 253 2336 1821 2491
7.3184 -160 608 2123 538 -807 -322 -3355 3454
7.3125 2 -397 -508 196 538 2197 1236 108
7.3066 -407 515 1249 306 -570 929 -1390 2499
7.3008 481 285 4153 212 1628 1139 -2539 -1030
7.2949 1050 1338 49 1429 -274 1701 30 336
7.2891 -2084 2745 1076 3272 -636 2281 3505 958
7.2832 410 -343 930 -356 1717 336 857 402
7.2773 920 89 599 391 -211 -600 -1245 996
7.2715 1164 3065 399 1075 4368 354 2529 1319
7.2656 265 26 207 186 892 1111 -2155 -2287
7.2598 -363 1632 396 1570 -185 2883 -74 -147
7.2539 -2052 1698 2584 3687 555 -884 3499 -463
7.2480 1618 2766 -1577 2321 2224 1979 3235 1511
7.2422 1227 2689 -27 -1805 -359 1479 3630 -952
7.2363 -1752 2669 1846 214 979 638 363 995
7.2305 -1603 -255 183 -952 1724 1018 2942 185
7.2246 611 888 -1916 -34 1113 2660 -1317 695
7.2188 -1524 -705 3130 385 414 -847 -371 2908
7.2129 1096 1927 -942 -1792 1480 1929 1738 1323
7.2070 1381 601 883 -1755 765 2255 2095 2377
7.2012 878 1427 -74 672 2575 1529 5762 2214
7.1953 -1028 144 -702 1060 226 438 118 -2037
7.1895 -1642 779 891 -1369 709 3300 259 3482
7.1836 321 2554 -1224 787 1262 1195 1905 100
7.1777 2979 621 -524 2256 -732 -4576 2998 -1489
7.1719 3321 834 -227 816 1636 17 -1038 1964
7.1660 1186 1494 536 -735 452 -1654 2225 690
7.1602 1797 1735 1724 656 719 -785 1716 -1998
7.1543 -1085 868 550 1459 1759 1498 1021 4541
7.1484 3600 1636 4898 2503 338 -325 -908 -854
7.1426 1255 110 3054 -319 1353 574 3249 -168
7.1367 1994 3138 438 -701 349 -210 1662 2147
7.1309 1429 85 966 2524 -1704 -1399 -86 71
7.1250 -161 2866 3958 -726 -239 307 1416 41
7.1191 1826 117 1068 1120 -429 1396 258 -2068
7.1133 -2309 2393 2267 812 1114 1357 752 2208
7.1074 2133 787 2898 3885 -885 -423 1475 -704
7.1016 1209 -1180 1021 958 888 589 1069 -567
7.0957 1245 627 3982 1865 1640 3297 1544 2691
7.0898 1446 2610 593 -1064 1699 -136 -1162 271
7.0840 2810 -173 2553 1108 2173 969 2021 52
7.0781 -2024 2656 656 171 3050 682 2876 -1088
7.0723 1767 826 1142 995 830 862 891 57
7.0664 1189 -370 336 944 902 916 525 631
7.0605 1971 1859 2651 476 -251 228 1185 880
7.0547 -3322 46 74 -50 -1618 3725 1607 4008
7.0488 -1297 1904 391 861 2743 2849 -660 -650
7.0430 3573 -263 -2006 3063 -1156 935 2243 2749
7.0371 868 1398 304 753 4655 -718 878 -6
7.0312 -577 984 2811 -778 0 3702 1469 1995
7.0254 1973 1076 837 273 103 3503 3743 2926
7.0195 1338 3374 -183 2127 40 2564 -637 1402
7.0137 153 757 -64 203 -553 1194 1982 1652
7.0078 722 722 2421 3848 542 1032 615 -1389
7.0020 529 630 1227 876 -63 -469 1884 -666
6.9961 -1389 1577 3012 2006 2223 43 -708 958
6.9902 -756 2207 -1293 -144 440 341 1067 -994
6.9844 2854 3780 1419 3294 -459 2894 431 347
6.9785 -901 -342 -2631 1041 3026 1401 2312 1889
6.9727 2526 3370 92 1948 1673 2727 1356 2927
6.9668 187 707 1308 1519 3084 1513 -1212 610
6.9609 -1550 -509 -602 -2361 -189 -1315 191 629
6.9551 -167 480 -877 1892 1562 2043 1763 -1959
6.9492 918 -27 -1115 3065 2238 -856 3520 -964
6.9434 1766 -2425 -1802 2398 1996 2547 -320 -329
6.9375 624 3025 -1050 827 941 -877 -1601 1170
6.9316 2632 -927 2194 -1073 2022 766 1478 1590
6.9258 676 263 3957 2041 426 705 -781 915
6.9199 2621 1159 390 3271 -1960 1279 108 2861
6.9141 3069 -1979 1338 5627 4458 2546 652 -318
6.9082 1091 232 971 88 344 1586 702 -3186
6.9023 4983 4057 1260 1937 609 575 -617 3563
6.8965 -126 1895 -901 -606 971 -782 347 -328
6.8906 955 612 115 851 3707 1260 936 3404
6.8848 3164 660 194 -4211 -1609 -2115 -1373 3161
6.8789 -3409 232 1248 1900 -96 3294 476 -1766
6.8730 791 2397 -254 3468 1607 3064 60 1117
6.8672 -26 1815 1033 2584 364 -3101 2261 565
6.8613 2450 -1895 63 2292 -126 -1164 99 -626
6.8555 707 422 263 1064 4222 -755 1446 1793
6.8496 1574 1997 -1875 3151 1677 2786 3032 1094
6.8438 850 -265 346 712 2143 68 -2809 -831
6.8379 1876 1150 -3136 1604 1193 2210 -876 1061
6.8320 623 -222 1726 2208 2979 -1269 1325 -76
6.8262 -443 1820 596 -533 1890 925 493 1485
6.8203 2564 1314 1725 2996 22 2962 -100 884
6.8145 1966 -2121 -1012 593 786 4624 1072 1117
6.8086 1046 -1735 44 350 1294 1655 1636 2269
6.8027 858 887 -1578 -454 2291 -2229 997 -119
6.7969 3079 2104 -2196 1641 2587 3986 1209 877
6.7910 -1560 2414 -798 -67 1210 1544 -1544 -319
6.7852 661 -42 691 898 2464 -2274 1031 -945
6.7793 1486 2597 -718 2137 309 -2864 -234 2140
6.7734 408 1009 -212 2927 946 1706 71 1599
6.7676 486 2301 1830 130 768 81 -1055 434
6.7617 -599 1149 880 702 42 37 2465 1448
6.7559 629 1087 718 2024 2356 2765 -549 2080
6.7500 204 -1476 1071 -493 -1134 1091 328 1288
6.7441 1739 1384 4603 1275 2530 1850 66 529
6.7383 -947 610 1728 403 1528 860 1023 1007
6.7324 1128 -478 720 -1035 1646 1784 -814 4305
6.7266 2440 -134 -287 -447 2448 360 -2011 -679
6.7207 1228 1347 1838 518 -2630 1144 1435 2374
6.7148 -58 2419 3081 -1062 1120 1913 756 755
6.7090 1923 2398 594 -778 853 1709 2198 1533
6.7031 1445 2448 -30 1570 -2410 530 663 1222
6.6973 944 -34 -1167 2372 559 3271 1990 3013
6.6914 -371 2782 2911 765 -172 2094 429 1518
6.6855 1928 1293 -122 30 -912 260 2080 457
6.6797 -513 375 1964 -79 1596 315 1529 2243
6.6738 323 -616 -645 -669 1423 2186 2331 -1100
6.6680 -1933 2346 -498 1540 1830 1433 1275 1226
6.6621 1049 843 1524 -2227 1090 2995 467 67
6.6562 1134 643 1118 -1137 717 192 -2925 2221
6.6504 -329 3323 1191 475 404 2539 2023 2621
6.6445 1271 2168 -702 -73 683 2145 -2538 -212
6.6387 1648 397 -1025 630 5525 -358 478 2392
6.6328 1066 1865 3112 4958 -118 666 1136 1798
6.6270 794 398 1922 -1125 1923 1813 2492 1068
6.6211 3884 513 2877 1672 1983 2074 1749 184
6.6152 -1132 1359 1598 4984 -575 737 -903 1443
6.6094 550 3061 -1750 747 1615 508 -976 570
6.6035 -901 752 1153 1323 2295 -369 -2774 -2205
6.5977 -457 3759 -590 -782 1895 972 1543 -680
6.5918 2095 829 1434 2716 1527 -448 388 -1910
6.5859 1161 1385 2691 1374 1920 1865 2249 -611
6.5801 1391 -341 1761 4179 1613 2010 2624 -843
6.5742 711 1292 1191 1879 352 163 2482 1096
6.5684 3174 335 3151 -891 -756 -316 978 -1756
6.5625 1285 560 -1983 3012 1423 -471 650 1913
6.5566 -1225 -935 1398 1061 -488 1383 -1741 189
6.5508 1636 -1756 -1037 -453 2959 -149 2621 2940
6.5449 203 -1522 60 11 776 1172 -2778 1756
6.5391 3817 1270 2030 543 -1368 2595 312 448
6.5332 1853 1443 1913 -703 3082 8 1835 -170
6.5273 802 -50 2683 2126 4146 -3074 -959 3792
6.5215 2569 979 -887 2145 3426 2231 -458 -557
6.5156 2376 -491 589 1877 2372 671 346 -304
6.5098 2330 4872 156 2703 4153 -851 1821 1517
6.5039 -870 1620 1434 2255 -1614 2047 446 2705
6.4980 2718 1821 1915 1953 -1479 3152 592 263
6.4922 950 2128 652 -394 -843 -672 437 2690
6.4863 1776 -137 1853 943 -1763 1035 2466 1306
6.4805 437 -497 1546 537 1918 -281 1768 -392
6.4746 601 1365 1948 3090 1222 1943 703 -1608
6.4688 1285 2460 528 -314 333 529 -818 -2082
6.4629 1381 -84 1053 3689 1387 573 2007 862
6.4570 -1334 1990 1858 -2 2498 450 1832 1493
6.4512 2078 744 -685 3233 -2416 -673 1355 173
6.4453 -1456 1767 1041 -3139 2144 1217 777 1674
6.4395 1820 406 -25 1264 3580 1480 1892 -415
6.4336 -1030 1658 -318 1621 1628 823 2633 -488
6.4277 458 1445 2455 -1100 110 2221 -2446 1305
6.4219 -711 -1167 1667 1812 998 772 3409 951
6.4160 2510 134 -689 3584 1894 1572 330 -954
6.4102 -1589 206 983 3389 3177 2502 2536 654
6.4043 2109 -547 1959 2402 1207 2313 -1307 204
6.3984 2326 2382 -862 2489 3113 -3265 1276 699
6.3926 934 644 2386 566 2638 1472 770 -603
6.3867 -848 982 -1029 2447 1019 1644 3473 75
6.3809 150 3038 3043 1752 576 1974 48 1509
6.3750 1003 1179 1389 2520 556 2488 -973 1192
6.3691 1078 762 -2207 2125 -1350 2234 1323 2441
6.3633 -2349 2444 -472 -1235 -944 364 2072 1190
6.3574 1015 -411 3316 1629 2976 1880 3897 2880
6.3516 1129 1689 2003 2053 846 2822 819 918
6.3457 1144 -168 2709 2537 510 3856 2529 146
6.3398 -934 579 1782 3341 1981 2745 4661 836
6.3340 3639 2264 416 4151 1958 615 -885 2758
6.3281 -1068 3332 -171 2484 2768 2831 2244 2919
6.3223 1870 1062 1632 2881 3453 1830 2216 2285
6.3164 2278 1897 -749 2765 417 564 -202 980
6.3105 -1109 -48 -523 3768 584 -859 3251 2367
6.3047 -878 -1635 1957 3471 2550 447 1332 1007
6.2988 2054 -1396 3601 -181 2737 2351 4419 1514
6.2930 -1564 194 105 387 3457 -338 2021 1201
6.2871 2625 4034 2088 2036 -89 -818 334 2948
6.2812 1164 1535 1225 2625 1146 1888 2747 1116
6.2754 -2588 1252 2950 3577 -1476 1643 390 -811
6.2695 -664 -315 -1376 2482 3124 -320 -130 2294
6.2637 2416 1125 2164 1866 3887 1889 1829 476
6.2578 598 56 916 302 3078 1035 2960 1552
6.2520 409 2663 -29 -987 732 2172 770 2816
6.2461 270 1859 1830 -75 374 2896 40 537
6.2402 568 713 -2534 1168 3587 580 -242 2438
6.2344 -585 220 -1776 -941 -2322 1577 -66 3607
6.2285 24 962 3921 -673 -65 2559 164 1014
6.2227 2750 -243 1219 -906 1186 1449 448 354
6.2168 -218 1423 1800 -8 1553 2067 -425 1936
6.2109 314 1042 852 952 -1918 1739 298 855
6.2051 2619 1212 1557 -28 -716 3734 -887 1892
6.1992 -580 1206 -1027 1173 465 785 200 2488
6.1934 484 -263 649 1440 2512 2743 2032 1212
6.1875 -1091 -929 2447 390 791 -253 -391 824
6.1816 2649 2469 938 1282 1684 3551 2815 2017
6.1758 643 1689 416 508 1992 4569 -539 787
6.1699 -388 1249 1866 1192 1605 2072 -424 4424
6.1641 2043 -141 2477 2738 903 2499 1446 2434
6.1582 2324 1033 1024 1412 -41 2432 1237 -922
6.1523 1606 5565 -650 419 1838 2671 176 808
6.1465 1880 2890 344 2715 1012 -1367 2069 3823
6.1406 2474 -1609 1461 3244 1228 3495 -1844 -326
6.1348 -63 64 2176 -507 -490 2645 639 -1377
6.1289 1939 681 464 1696 1766 758 -728 780
6.1230 649 343 1182 1667 882 1587 1708 1709
6.1172 2691 -912 -76 2020 5440 -830 1791 522
6.1113 1773 2941 960 2580 2778 1576 1724 995
6.1055 1281 -1997 1808 347 1073 1076 1112 20
6.0996 919 132 -38 1332 2454 3207 882 2596
6.0938 3838 960 715 1536 -412 695 1883 1133
6.0879 1385 1856 -166 -644 462 529 3277 1242
6.0820 804 1452 -107 -270 2337 2876 -2563 1599
6.0762 2632 1083 4732 3713 70 1502 417 576
6.0703 2630 491 3250 786 2237 4038 -319 1826
6.0645 3104 2139 2756 3494 250 1536 608 1573
6.0586 -1274 2159 2894 -2453 1227 -829 934 2091
6.0527 3568 1825 1130 2898 3526 2583 1346 340
6.0469 1967 1622 -427 1231 4191 1951 2539 118
6.0410 1413 2014 1646 4075 -627 2653 498 -814
6.0352 -1003 2699 597 -1773 3048 -85 2259 1547
6.0293 2122 1516 1613 3197 1289 1539 259 3505
6.0234 -171 -131 1492 1099 781 401 2330 2944
6.0176 3998 2015 1221 2147 2255 1373 1268 1989
6.0117 2930 1822 790 1316 3256 -174 1518 3077
6.0059 3425 779 500 4539 314 2075 3236 2816
6.0000 -338 932 -723 451 2510 -459 2996 2704
5.9941 489 4930 3764 1923 1901 3166 -759 -870
5.9883 4039 540 3337 1845 4512 542 285 1434
5.9824 3616 -1611 1557 1896 2264 1059 1982 1976
5.9766 2103 1167 4155 2229 1024 731 1276 1299
5.9707 -644 -1799 1409 1221 1356 1560 2817 1652
5.9648 2734 666 955 2882 2974 -1512 1669 -686
5.9590 368 484 1309 -366 3746 1547 828 -393
5.9531 936 -299 1742 1932 1775 2350 1644 3443
5.9473 3190 2607 1498 996 2325 543 -135 -1124
5.9414 2608 2696 -221 3165 1719 479 -204 2015
5.9355 1877 2429 1365 25 4978 401 335 2304
5.9297 707 428 123 633 2027 2827 1107 2310
5.9238 506 439 158 -820 -70 -643 829 2039
5.9180 1104 1292 3215 1353 1341 -3097 78 -2229
5.9121 4450 993 -630 -2772 2892 2188 1794 1569
5.9062 1801 2484 1990 497 141 2338 -337 727
5.9004 2690 -1087 2796 263 3293 143 1238 -459
5.8945 -123 542 -784 3689 2486 2217 3142 2934
5.8887 1598 -466 266 1452 1853 -94 1178 -306
5.8828 833 1166 616 1113 -1189 -1103 2931 1367
5.8770 125 3797 1811 510 669 2192 2440 1462
5.8711 1521 1079 3452 1072 -766 1901 693 2431
5.8652 3065 3206 3695 480 -716 485 2103 253
5.8594 644 487 1654 1178 1313 955 -2960 -263
5.8535 2652 2910 3078 1138 99 1562 867 1830
5.8477 -651 2253 849 1392 -1762 -1510 2544 -102
5.8418 1966 1262 -2071 4022 877 29 -67 1798
5.8359 -268 1811 2950 2251 869 2423 3282 2138
5.8301 3043 2587 951 -590 1431 -1346 1387 293
5.8242 3494 -1659 956 1196 2254 -2763 -420 486
5.8184 2629 2140 1548 2640 2073 1940 5094 -492
5.8125 3237 4641 1581 2357 3085 325 1213 1703
5.8066 437 2761 797 1403 -144 1552 691 2067
5.8008 1578 449 3781 -388 2161 4 1043 3496
5.7949 863 580 1627 3673 442 1382 -426 576
5.7891 511 2225 1279 359 -565 3245 1351 1707
5.7832 1171 2600 1746 2375 111 335 1930 3484
5.7773 -181 3058 31 1323 2116 483 -788 2010
5.7715 1415 254 -731 3062 576 1002 -690 2923
5.7656 1348 1811 3335 1718 -275 -603 1718 -1022
5.7598 4048 817 528 3681 1173 3452 34 426
5.7539 4192 1917 3991 791 1194 1681 1447 183
5.7480 3010 -417 689 34 -3285 2627 1291 -199
5.7422 2819 2340 3400 478 1426 -1369 4361 -33
5.7363 1019 1368 933 1447 2560 998 2307 3790
5.7305 1431 -416 -899 1588 -210 -838 1072 389
5.7246 -629 94 -457 3673 781 2187 1826 1801
5.7188 -675 554 2211 2412 2807 -839 -109 1678
5.7129 -730 672 99 -879 2750 864 1870 1090
5.7070 -21 784 2470 2554 102 2014 2584 1809
5.7012 1427 1757 509 322 -212 1037 1711 1154
5.6953 4194 2169 1567 -1640 866 -670 -279 2660
5.6895 359 2641 -537 3318 3466 3403 1509 775
5.6836 1627 1416 4406 3512 -1355 3027 343 722
5.6777 219 1129 2945 1232 1076 1395 1650 -1299
5.6719 1951 3508 2158 306 1235 4228 -927 -2365
5.6660 1152 746 -1364 654 2169 2648 2371 1224
5.6602 2771 1410 2771 1976 862 709 -401 1347
5.6543 2069 776 -1422 99 1209 2611 3229 85
5.6484 1879 5111 -1604 -751 844 3584 -214 2413
5.6426 -1407 1912 362 974 3952 -1461 1782 450
5.6367 362 3780 1815 1572 1246 2352 -609 3511
5.6309 -983 -1830 805 1473 462 765 508 1460
5.6250 1747 1049 1686 371 3159 -935 1897 3451
5.6191 1379 537 1743 -275 2302 -401 372 1608
5.6133 835 1755 -102 3181 541 2839 1242 3003
5.6074 2375 372 1478 1987 3421 -1182 2869 -709
5.6016 1385 -198 710 4657 1755 3238 1113 2719
5.5957 3490 1465 -89 4438 893 -501 1990 1672
5.5898 -1719 3234 1828 1265 3146 -1619 4514 2422
5.5840 531 2760 3005 1439 801 -344 -208 -626
5.5781 -853 2885 44 -515 4030 1238 3557 2929
5.5723 -871 3366 2263 2521 2261 207 -301 -137
5.5664 -499 212 1226 -337 2154 930 -194 -281
5.5605 1467 1888 -275 3171 -481 225 3328 929
5.5547 2826 1906 -1226 1898 792 -1797 1207 2282
5.5488 -1179 -712 -1516 2041 2038 2036 1340 442
5.5430 3339 -1549 1012 -394 36 -830 1932 -45
5.5371 1968 1251 243 2552 -119 918 3833 3264
5.5312 1304 1168 935 -443 -1017 2449 964 1676
5.5254 453 115 3347 2130 -1971 1396 -801 2432
5.5195 1089 525 796 1101 4488 -282 2708 2123
5.5137 2282 689 -243 -89 2588 302 961 520
5.5078 1581 2095 -1200 2771 529 456 2159 1245
5.5020 811 4479 1620 1261 1213 979 3275 203
5.4961 733 1315 3284 -82 130 1766 1297 3419
5.4902 1939 4880 -205 -1083 2800 3800 2144 405
5.4844 3162 4715 -778 1846 3297 261 2775 1496
5.4785 3778 2139 745 2981 -403 1462 4654 2804
5.4727 2213 1182 4671 2553 -407 3311 1478 2563
5.4668 1253 2 -1579 1602 74 1433 2017 -13
5.4609 1163 2916 825 1188 1740 2804 2248 1903
5.4551 -323 1551 450 190 -168 3311 1562 3232
5.4492 2754 4051 -479 1849 1851 1231 1159 1098
5.4434 1618 2209 565 934 1062 694 -497 3034
5.4375 -2029 2765 2728 292 -416 951 341 -3699
5.4316 1759 312 2164 -200 2524 -1740 3222 1062
5.4258 2130 2329 1746 2810 -248 217 315 3508
5.4199 788 -2308 620 1343 753 2416 -1677 3698
5.4141 -282 1899 240 1977 -54 -1257 1858 92
5.4082 2428 1001 3822 2199 3586 2112 744 521
5.4023 2624 649 864 1141 521 1087 2058 51
5.3965 2142 4299 1739 2075 1484 4424 2629 715
5.3906 814 2120 506 1636 1168 2570 -504 1901
5.3848 1816 4002 2197 1089 3219 595 1841 -603
5.3789 -506 2130 1522 759 1733 -577 2106 1689
5.3730 1823 3082 1140 -82 1674 1969 753 1061
5.3672 123 3192 1401 143 2757 1343 2706 889
5.3613 2551 4259 6347 1709 1030 1707 3313 -806
5.3555 1236 2685 2869 280 1249 2960 2504 5508
5.3496 1140 -1344 1824 1731 1080 2462 1242 -421
5.3438 3560 2333 2801 1090 3508 3256 -670 158
5.3379 2334 -1455 558 2531 1526 1080 -705 2514
5.3320 953 5200 1453 1537 62 906 515 4214
5.3262 -869 2517 679 -666 4736 4712 2034 1662
5.3203 -1283 1210 2208 575 121 200 -1733 1981
5.3145 2802 1521 1493 2045 1285 -305 160 3237
5.3086 3458 2328 1377 1427 992 2183 4493 2035
5.3027 -790 2674 3065 1616 1723 1635 2750 -956
5.2969 283 1412 2109 2499 -499 2161 2625 -795
5.2910 670 1515 1969 1081 1412 2065 2598 2305
5.2852 5639 921 1337 1378 2233 -1275 1925 2318
5.2793 -1523 603 2750 717 2732 3649 2217 2573
5.2734 -1008 1105 1549 -551 1359 2759 3257 -275
5.2676 1501 1675 1835 391 1931 85 108 2500
5.2617 4061 2373 3160 1441 2267 1837 -1158 2117
5.2559 -423 2435 155 3291 3113 535 487 3423
5.2500 -4 2746 2345 1809 -888 149 5150 2219
5.2441 1752 991 527 72 -291 3214 966 -3094
5.2383 1994 1788 1117 1509 1423 2101 3153 -212
5.2324 1781 1004 1445 1418 1370 3618 3017 -2305
5.2266 -1604 1108 618 3258 3578 1872 -476 2795
5.2207 2196 761 2472 3102 4112 3130 1632 1870
5.2148 627 1217 2854 582 681 34 2535 3015
5.2090 50 978 1543 180 1101 2428 982 1264
5.2031 658 -182 1836 184 1220 2891 1660 4222
5.1973 2443 2139 939 338 2564 -348 2439 2346
5.1914 -15 1919 2484 140 1233 1183 3348 2967
5.1855 898 236 1787 1257 -15 1533 2474 1366
5.1797 2621 2400 168 -1674 40 -1022 2971 1335
5.1738 -1438 -145 3163 -765 1957 2099 175 3209
5.1680 -1849 957 -965 2180 1746 993 -767 2309
5.1621 2991 1059 1613 382 615 3582 1600 1356
5.1562 374 2630 -1441 2781 186 2940 3965 3095
5.1504 1820 5509 1401 2219 5261 816 3600 4150
5.1445 2656 1659 1596 1123 1899 1027 1051 2704
5.1387 -4 -311 3348 837 2237 3204 -739 942
5.1328 916 397 1022 1449 1193 1060 4776 1407
5.1270 3766 4584 -526 746 -252 2928 1761 2662
5.1211 -984 2413 2379 262 1571 1979 4002 3036
5.1152 -1072 306 2410 638 289 -675 1078 2335
5.1094 1591 2457 272 -766 530 3061 146 -609
5.1035 3618 3308 2868 1455 -738 -827 2379 4343
5.0977 1034 1623 -28 2834 -399 924 3103 4407
5.0918 645 1186 2886 1250 692 647 1619 1806
5.0859 831 3576 256 2163 1841 710 -820 2768
5.0801 436 3386 2030 2025 585 -1040 644 2697
5.0742 849 1288 3146 2521 863 3984 3233 1383
5.0684 -299 626 3752 1230 242 1378 2432 2486
5.0625 2598 1808 2929 1363 3335 210 3941 2439
5.0566 758 1678 2813 1584 4073 752 -169 3620
5.0508 1475 2747 5361 1118 1253 -847 11 997
5.0449 2911 1605 2566 4125 3840 311 3263 1899
5.0391 4134 3187 3135 340 6155 2265 2172 -1598
5.0332 1884 3513 3391 1935 3364 1704 1191 -2089
5.0273 2528 1920 45 1999 287 173 1375 1634
5.0215 813 2057 3348 1692 1827 1640 2878 2179
5.0156 1870 1812 3584 3820 5304 1620 2299 3403
5.0098 2769 -202 -1017 -975 902 1584 195 3009
5.0039 1167 3703 2 -1037 1734 3389 2154 2632
4.9980 -702 1809 3053 4029 1342 6560 3945 1574
4.9922 1614 1515 263 2845 1265 1034 289 3780
4.9863 1349 1695 3333 83 2340 1879 596 244
4.9805 3663 1895 -49 2660 2374 2544 4209 1951
4.9746 -535 382 2243 2058 3531 4046 2872 1364
4.9688 66 970 2972 4821 1044 2958 3559 1669
4.9629 632 1759 -461 1053 2206 405 2558 2359
4.9570 1246 648 4267 639 2094 1555 2495 2916
4.9512 1586 1900 2953 -259 865 1546 1679 2711
4.9453 2535 3627 1638 2354 2922 439 2451 6057
4.9395 1348 -1150 953 3593 3739 -980 -170 5125
4.9336 1414 2650 3196 2813 1871 1880 2481 1362
4.9277 897 1505 3947 -634 2296 -635 2111 3351
4.9219 1483 2396 2267 4312 2868 2549 965 1567
4.9160 1367 646 523 3197 -795 3741 1374 2159
4.9102 282 1535 1385 3183 2201 1712 2384 2415
4.9043 894 3891 1965 3891 2379 1225 -566 91
4.8984 2742 1580 1863 5391 4572 620 4023 857
4.8926 3842 2653 1476 3191 2645 744 1833 -559
4.8867 4611 2652 4403 713 3520 3068 2248 2187
4.8809 6762 3557 536 808 4345 235 1880 1449
4.8750 -238 4930 1169 2689 401 5008 3987 2374
4.8691 3224 3371 589 -34 2280 1743 2439 3248
4.8633 2481 -652 2473 2758 2318 985 1352 1026
4.8574 -708 3367 527 1495 755 3767 4467 4746
4.8516 765 2309 707 2827 2626 1818 2786 -11
4.8457 3925 1612 1387 577 706 2230 239 2162
4.8398 2688 1829 4280 704 714 4702 4017 4672
4.8340 1103 -283 3382 478 264 3151 5074 1555
4.8281 352 740 1862 -104 1873 -492 533 2096
4.8223 1722 730 3426 2306 757 870 858 3710
4.8164 3868 3786 1346 2311 702 2310 3779 1011
4.8105 2616 1685 7258 1462 2018 151 886 2676
4.8047 1341 1278 1842 -628 3535 2491 3033 3952
4.7988 3617 2427 1135 2430 2264 1578 4739 1719
4.7930 3240 1269 2267 572 2057 2639 1927 4031
4.7871 1254 1706 432 1914 1540 2964 3172 2884
4.7812 1150 2049 2698 725 3933 3641 3244 1008
4.7754 5462 -686 1073 2804 2780 2783 1198 3722
4.7695 4129 1620 1402 3488 3781 1941 1850 1346
4.7637 1050 735 2163 4300 3115 1404 1227 2871
4.7578 -404 1349 3291 63 1873 1581 5383 1350
4.7520 732 325 347 1411 2415 2403 4232 3281
4.7461 -172 3581 2774 2372 2391 2880 1176 2378
4.7402 3134 2013 3360 4174 453 4019 2553 2172
4.7344 2924 1986 2869 -579 2341 5089 3445 3823
4.7285 6643 3638 1215 3025 2485 3773 2522 2347
4.7227 3010 2670 1926 1917 3782 766 2440 -423
4.7168 2336 2312 3289 2142 3055 2815 2899 3370
4.7109 3248 2947 3247 3696 3164 2806 -39 354
4.7051 2552 2437 2703 2332 4850 2819 1055 2805
4.6992 -389 1647 2582 4280 110 1833 -414 1964
4.6934 2400 114 748 2842 2961 978 2105 -83
4.6875 436 592 1322 2171 2273 2339 3643 2302
4.6816 491 2038 1214 1450 2180 2105 1629 -2206
4.6758 2233 3929 2396 2798 2055 3171 2053 -879
4.6699 2759 2841 4635 4719 4083 3670 1155 2365
4.6641 2727 647 -603 1311 1603 638 82 1115
4.6582 2599 3615 2142 2578 -606 -410 4558 1388
4.6523 3440 4485 223 1301 969 -1214 1536 789
4.6465 4151 1624 3489 2481 953 3117 1419 2649
4.6406 -615 1588 2470 2814 56 2754 1282 1785
4.6348 1914 826 2893 2595 -311 4453 823 1036
4.6289 -419 4420 3264 1776 3286 2998 753 -121
4.6230 3475 876 2384 3615 2576 5013 1701 1325
4.6172 -931 2198 3561 3477 1667 1151 2177 2709
4.6113 832 1918 1765 2042 2368 2244 3789 291
4.6055 2424 3037 648 3809 1529 3205 2784 4435
4.5996 4526 597 3723 1675 3617 2025 3667 2574
4.5938 100 3029 370 340 2992 2857 4584 2360
4.5879 3820 1651 5579 2439 4251 2679 4339 2986
4.5820 1215 1069 2205 980 6055 2768 4877 2873
4.5762 1508 1852 2441 2564 1020 5355 2886 1783
4.5703 690 3827 5681 2061 2250 5315 1683 1413
4.5645 2564 3292 1392 3631 2936 2000 644 4962
4.5586 3667 1521 4743 1113 3008 6284 3358 -328
4.5527 2426 1385 4530 4980 4758 121 2224 2100
4.5469 3259 4677 2677 6757 141 2245 5548 2684
4.5410 6502 3426 5400 1850 1469 1292 -28 1003
4.5352 1547 3400 2783 -1099 2432 3318 7998 667
4.5293 2583 -633 3218 2347 4003 4234 3789 6491
4.5234 4006 2131 894 1720 1272 2995 687 1663
4.5176 1321 3677 1812 2010 1822 3030 1735 -274
4.5117 1633 2030 3506 1441 6078 2595 3157 1463
4.5059 2343 266 2831 3871 2409 4983 4227 3077
4.5000 2661 4508 2209 774 -22 1494 419 2174
4.4941 2672 4340 1347 3095 2510 2428 660 1802
4.4883 1298 4616 3145 3489 1082 2591 4410 3109
4.4824 3424 2662 2222 519 4321 2611 3411 2460
4.4766 2339 1326 -1371 2790 3875 3209 2925 2097
4.4707 394 403 4851 4772 5181 -769 3614 3730
4.4648 1076 3356 1160 1180 -1958 4864 3656 647
4.4590 4015 2870 2427 4192 2297 3490 2844 4663
4.4531 3277 3284 3333 3498 5159 -271 2750 -1826
4.4473 1287 4930 1021 4439 3711 2363 1266 3573
4.4414 2944 6060 3425 2279 3852 4312 3782 3809
4.4355 1534 1501 2646 2612 2943 970 138 1579
4.4297 1373 1317 2258 2838 2765 442 3512 2238
4.4238 1552 3218 2648 3022 1349 2980 2093 2825
4.4180 846 2977 1238 3181 2363 301 1631 4879
4.4121 3539 3661 1204 5355 4389 3740 2431 1206
4.4062 980 5433 -1058 3168 2233 3276 2700 2506
4.4004 3435 1825 5247 3456 2313 1292 1707 3514
4.3945 1779 2803 1229 1677 3146 2720 1663 1506
4.3887 2325 1893 3038 3628 3565 4657 3454 3002
4.3828 3007 2823 2702 3270 143 4006 4292 1860
4.3770 2170 1232 1396 1863 5497 1317 3583 1812
4.3711 3027 873 5124 845 4012 3668 3806 1625
4.3652 3043 3799 3328 -68 1339 2483 3515 1991
4.3594 4359 1422 4529 2826 1417 186 4455 2394
4.3535 2932 5030 1839 6166 3719 703 2342 2639
4.3477 3622 2746 4538 5258 2044 1432 2795 2071
4.3418 4548 2468 -27 5017 4515 4111 1353 1058
4.3359 1675 2552 2498 4641 2869 1362 2834 5552
4.3301 1482 5892 1151 2780 2808 3754 4476 3476
4.3242 4180 1792 3353 2354 4400 2819 1996 4027
4.3184 2529 3119 -1017 4343 3361 898 4993 187
4.3125 3149 421 4632 1076 -720 4007 4180 2488
4.3066 3580 2557 3410 3548 3801 3247 2890 2494
4.3008 5137 1381 3138 3434 1181 1225 1927 3169
4.2949 5256 1906 2247 3414 3022 1082 4508 7385
4.2891 1888 4207 5460 3119 3924 3544 6692 1230
4.2832 4174 3423 2539 2596 2409 2898 4844 5666
4.2773 2944 2455 4252 2804 2685 5435 2530 2710
4.2715 1195 4028 2231 3178 1698 2725 4793 4438
4.2656 4196 4028 3629 3196 1422 2736 3909 1157
4.2598 2621 6576 2945 3284 3266 3473 1160 3913
4.2539 2519 2719 7446 3529 4074 5515 1208 3539
4.2480 2352 4533 5841 2749 4376 4937 6035 2330
4.2422 1122 3933 4833 4685 3225 3193 3349 4852
4.2363 3024 2943 2223 4115 441 3937 3364 6220
4.2305 2402 2137 229 3701 5320 2616 1109 2097
4.2246 6507 2310 4751 3452 2492 2433 4180 3457
4.2188 782 3533 4773 3778 849 -1112 3207 1439
4.2129 3672 4967 5416 2987 3031 2319 3128 3819
4.2070 2413 2060 3856 5569 3401 3760 4355 2771
4.2012 1723 3420 4623 2139 3143 3020 2286 3133
4.1953 4412 3415 2999 3963 2130 4093 5106 3706
4.1895 3410 4974 4464 4810 4644 1566 5522 3552
4.1836 7277 861 4652 988 1237 4460 4416 4657
4.1777 4284 1324 4846 4604 4022 4518 5852 2830
4.1719 3458 5867 5241 4325 4854 3198 2224 4733
4.1660 5015 3979 4316 3636 3838 2818 3570 3502
4.1602 3599 3914 4064 3796 5512 3588 5581 3622
4.1543 4184 1504 4774 4981 5240 4309 5698 2236
4.1484 4808 4780 5916 3544 5599 2076 5527 4502
4.1426 7069 2762 4102 4144 4867 5376 3724 3250
4.1367 4930 2809 4704 562 4741 1308 3712 5269
4.1309 3644 4496 4373 8415 4675 4105 3871 5510
4.1250 3270 3316 4753 5873 5091 4365 2692 3081
4.1191 1693 5288 3106 3895 4059 3499 4283 4923
4.1133 2374 5203 2317 3666 4207 3041 4355 5670
4.1074 1981 2121 4510 3344 4666 5008 3600 5046
4.1016 6927 2524 3606 1338 7084 6488 5728 8222
4.0957 5578 3552 5349 6294 4347 6362 5347 3936
4.0898 2003 5513 3089 5093 876 2960 3884 4326
4.0840 4395 3903 5358 4361 4201 6333 5690 5985
4.0781 3124 6629 4296 6800 6448 7213 3939 5414
4.0723 5618 4992 5165 5271 6407 4720 974 5816
4.0664 6412 5130 4104 5495 6861 2650 3750 6152
4.0605 3786 5184 4210 4677 4891 6103 4381 3625
4.0547 6096 4479 5143 5062 6327 3135 4063 7912
4.0488 2532 5025 4116 1964 2507 1677 2465 4162
4.0430 6041 5211 3285 4467 7584 4997 1590 3176
4.0371 6147 3378 4184 7449 3086 7231 4020 3087
4.0312 7264 2031 4646 6803 7733 6219 5277 2531
4.0254 5203 5217 5795 3424 4529 6914 8001 4258
4.0195 6703 6122 5194 3261 3683 4477 5674 5992
4.0137 4832 6193 3334 3885 5277 4696 4993 7564
4.0078 6418 6015 5448 4151 4791 6206 4340 5197
4.0020 6176 4004 6833 4094 6943 3153 4076 5400
3.9961 7812 4552 5574 3293 10087 2885 6520 2716
3.9902 5274 6481 9963 5282 8069 4133 6058 5509
3.9844 5727 4547 8610 4854 7257 5356 5471 4862
3.9785 4017 3682 5186 5377 7623 8423 4205 3424
3.9727 8697 6197 3586 6878 2869 6992 3469 6397
3.9668 6573 7275 5748 5892 4822 3304 6607 5836
3.9609 4316 4121 5747 2854 7343 7566 5572 5437
3.9551 6740 7374 6353 5862 9092 5190 7332 6912
3.9492 7157 7274 4652 7973 6817 7498 7399 5609
3.9434 8546 7898 7466 5053 8160 6454 6525 5385
3.9375 6048 5467 7728 5914 4353 6689 3734 6368
3.9316 5344 8784 6812 4304 7014 8364 7821 8604
3.9258 4225 6695 6854 9733 6341 6886 4407 4462
3.9199 5093 9360 7981 5036 7539 6105 6569 8575
3.9141 6299 8695 8028 6560 8348 5636 6753 7950
3.9082 7097 9068 2005 7715 8849 6071 6750 10269
3.9023 8590 3809 5291 4850 5778 8603 6962 7000
3.8965 4744 7369 5600 6689 8631 9149 6361 8589
3.8906 9012 7817 9622 7471 9278 8301 9106 8810
3.8848 9908 8565 6524 6144 8361 5487 8045 7969
3.8789 8984 6552 6226 8934 8281 9065 10375 7981
3.8730 7448 8108 8873 10207 7279 8905 10173 9233
3.8672 9419 8645 7545 11680 7030 10500 9352 8893
3.8613 11435 8089 9836 9657 10284 7396 8224 9121
3.8555 10748 9992 8147 6103 10012 7923 11656 9366
3.8496 12443 10161 10412 7417 12071 11066 8671 10257
3.8438 8796 9409 9826 11772 8901 9987 8001 9956
3.8379 9251 12569 10005 10040 10877 10559 11673 11844
3.8320 11664 7878 13337 12758 12217 12623 10455 11986
3.8262 10591 9754 10748 11483 12032 11151 13778 14903
3.8203 11556 13200 12452 9985 12546 10076 10537 11855
3.8145 11177 12431 9685 14421 11837 15293 11551 11190
3.8086 12265 11380 12281 11528 13715 12783 13035 13000
3.8027 15507 12387 15800 12890 14469 11697 17005 13689
3.7969 12516 13334 17284 12724 14193 15660 14576 13062
3.7910 14686 16577 15795 15614 15362 17469 15812 15965
3.7852 14865 15775 16458 15364 18109 14347 17926 18259
3.7793 18056 14513 17375 18758 15855 16501 15391 16508
3.7734 18664 17227 15460 19037 17178 15785 18574 16445
3.7676 22134 17916 21460 20620 18937 21326 20568 20706
3.7617 19313 20097 19310 21061 21863 22747 23406 25952
3.7559 22185 24050 23671 24271 23850 25502 25807 26620
3.7500 24721 28752 24902 27355 25723 26350 27427 28040
3.7441 27731 28619 26137 31340 31246 31191 30901 32824
3.7383 33865 32928 35465 33307 35582 37102 40687 39096
3.7324 41652 42936 43589 43619 42980 47586 47756 52128
3.7266 51966 56864 57079 60142 67695 72175 75906 78222
3.7207 92362 99922 118248 144172 177351 215095 208634 140466
3.7148 83924 56961 46538 46657 48664 51001 53680 60355
3.7090 63584 71605 79768 87984 98882 110109 124523 142196
3.7031 169014 202541 252719 327907 428646 530217 489608 275273
3.6973 102250 30487 1968 -8580 -6390 -4780 143 5698
3.6914 13169 21175 28997 40363 49601 61965 80478 103061
3.6855 125274 160347 212226 289923 398027 491608 426048 200216
3.6797 44418 -22540 -48563 -56768 -58197 -54531 -53145 -49806
3.6738 -46149 -40482 -37112 -29684 -25881 -21183 -11608 -6274
3.6680 4674 20083 38880 65622 103849 131014 101739 28533
3.6621 -20172 -42700 -47141 -49485 -49620 -48852 -48262 -46329
3.6562 -46004 -44482 -43798 -41905 -38048 -37131 -37550 -34522
3.6504 -36155 -32767 -29810 -31801 -33104 -31198 -31966 -30637
3.6445 -29009 -30179 -31649 -28403 -26384 -28495 -25374 -23980
3.6387 -26479 -24801 -23153 -23890 -24328 -23298 -23837 -22013
3.6328 -21746 -20570 -20318 -19622 -22671 -23158 -21843 -19404
3.6270 -20651 -20695 -22580 -19082 -20188 -16320 -18822 -19380
3.6211 -19343 -18487 -17098 -15278 -15203 -17379 -13428 -14409
3.6152 -14229 -15703 -15520 -17667 -16702 -16697 -17141 -12121
3.6094 -14253 -17111 -16964 -14874 -13538 -13638 -14538 -15018
3.6035 -14518 -15160 -14022 -10111 -12726 -16492 -15059 -16472
3.5977 -10528 -13207 -12017 -13336 -9703 -12068 -13769 -13527
3.5918 -13725 -10793 -13615 -8519 -12263 -10293 -10440 -10643
3.5859 -13208 -8818 -11941 -10209 -9923 -15331 -11258 -9578
3.5801 -9955 -9894 -9273 -10877 -9324 -15683 -7013 -13628
3.5742 -9380 -8798 -10752 -10743 -9109 -11150 -9749 -9638
3.5684 -11440 -7348 -7320 -7523 -5157 -8281 -9855 -9683
3.5625 -9327 -8152 -10546 -9123 -6071 -7412 -7146 -11154
3.5566 -9976 -5616 -7878 -7502 -7987 -8460 -6414 -6328
3.5508 -7257 -6871 -5994 -5811 -9005 -8050 -9290 -6111
3.5449 -9234 -6561 -5148 -7545 -6395 -7273 -7252 -7855
3.5391 -5232 -8101 -5529 -7222 -6583 -9259 -7748 -6827
3.5332 -6861 -5597 -6998 -8280 -5869 -7092 -5278 -4865
3.5273 -6635 -4720 -3641 -2408 -7015 -3610 -4596 -5085
3.5215 -6558 -6851 -8111 -8268 -4989 -6654 -5582 -7079
3.5156 -5970 -7591 -6646 -4378 -3364 -5155 -3613 -5090
3.5098 -4810 -4646 -4400 -4484 -7311 -9037 -7945 -5260
3.5039 -3211 -6025 -6806 -6036 -3048 -6017 -5073 -3141
3.4980 -4080 -7390 -5235 -4298 -3863 -7332 -7094 -4451
3.4922 -5563 -6450 -7055 -3844 -3863 -5478 -3091 -6272
3.4863 -1761 -1968 -5577 -4642 -5654 -3824 -4608 -3761
3.4805 -3758 -3249 -5848 -3174 -1527 -4647 -6826 -3061
3.4746 -859 -5545 -3672 -4802 -4561 -4057 -4875 -4690
3.4688 -4130 -2769 -4245 -4429 -3104 -4825 -4400 -6122
3.4629 -3410 -3376 -3679 -5714 -2807 -2877 -1931 -6460
3.4570 -5437 -5829 -4455 -3791 -5783 -5333 -1513 -4483
3.4512 -6549 -4648 -4483 -2985 -6488 -3632 -5047 -3652
3.4453 -3512 -3788 -5516 -8133 -4134 -5623 -4739 -6735
3.4395 -3981 -918 -5061 -2408 -4902 669 -5950 -3844
3.4336 -3033 -2950 -5330 -1204 -3449 -3979 -1339 -2681
3.4277 -4004 -4531 -3261 -683 -5599 -3543 -3976 -3641
3.4219 -5214 -1163 -3923 -3324 -2834 -3802 -130 -46
3.4160 -705 -2219 -1821 -1567 -1908 -2289 -1878 -5112
3.4102 -4805 -2195 -3414 -2903 -4219 -2877 -3655 -3688
3.4043 -4150 -2387 -3560 -3850 -4736 -2994 -4617 191
3.3984 -3842 -2357 -4160 -723 -1360 -761 -6242 -4540
3.3926 -3429 -2567 -1747 -4853 -4563 -3139 -3493 -2663
3.3867 -3067 -821 -3849 -5012 -3893 -1742 -3827 -361
3.3809 -3156 665 -1333 -2969 -4682 -2618 340 -1346
3.3750 -1561 -3936 -3709 -2196 -3237 -2292 -1320 -993
3.3691 -3068 -2401 -2727 -2922 -2599 -2502 -372 -3660
3.3633 -2155 -2268 -3978 -3185 -382 -1587 -1652 -1240
3.3574 -2305 -4282 -3045 -3227 -1423 -1205 -3597 -1405
3.3516 -243 -4452 -828 -1598 -1793 -1139 -2712 -3791
3.3457 -545 -559 -3143 -1156 -45 -3631 321 386
3.3398 -1007 -3041 -949 -2586 -835 -3433 -3342 1140
3.3340 -343 -103 -2465 -3376 -1017 -1008 -2590 -1164
3.3281 -1100 -2209 -3737 -4294 -1888 -1745 -1507 -1079
3.3223 -2332 210 -3355 -4136 -4712 -2479 -838 -3057
3.3164 -1395 -3619 -3598 -1993 -3036 -533 -513 -18
3.3105 -630 -2501 -2934 -3667 -2546 738 1103 -2474
3.3047 -4121 284 -172 -2689 -3963 -1374 -873 -2383
3.2988 -1362 -1126 -787 23 -1797 1121 969 -1897
3.2930 -2308 -3246 -2222 -1821 -1372 -1029 -2596 -1311
3.2871 -1574 936 -1557 -2702 -1409 1068 -1139 -252
3.2812 1376 -1461 -1541 1270 -1699 -2172 1241 -1630
3.2754 -1994 319 -329 -4426 262 -1867 -1285 726
3.2695 -302 600 -268 807 -329 -1672 -258 -641
3.2637 2516 -1495 -3190 1414 -715 1166 348 -1064
3.2578 -1438 -1235 -2869 -1095 842 -3127 -699 1124
3.2520 -256 -542 -1420 -2489 113 -189 1143 -747
3.2461 246 -471 -1248 -2850 -955 1744 -244 -1453
3.2402 -1632 -293 -1457 -304 -2558 -1259 -2406 -2790
3.2344 -2758 679 -562 -2006 -2158 -499 -1793 -3210
3.2285 -2198 656 1861 -417 -560 1421 -1341 1973
3.2227 -817 -1006 -261 -716 -1262 -521 414 748
3.2168 1018 697 -1088 -3797 1319 -1491 -143 -203
3.2109 380 822 -504 -714 -4144 -598 -1264 -3722
3.2051 -1094 62 -256 -570 -2577 -555 -2011 -1627
3.1992 1885 -2515 -364 -1905 -1371 -1687 -591 -543
3.1934 -3330 -150 1967 -2239 -173 -2330 311 -2180
3.1875 809 -575 -823 903 3674 -990 1324 2435
3.1816 -2799 -2084 -1661 -1308 441 2047 -1785 1577
3.1758 -1545 -1541 617 -1731 -1082 1382 -641 1443
3.1699 84 1217 145 4032 -1839 174 -1316 3026
3.1641 -420 207 -23 861 4024 -2797 -1546 174
3.1582 -1797 725 696 -253 320 -225 -1633 -2251
3.1523 -841 -583 -535 1851 -509 376 -766 -853
3.1465 -641 340 1708 -963 -2915 -2714 -2421 -3000
3.1406 -2466 -1881 865 -489 2097 -2661 407 414
3.1348 980 1208 -1219 762 226 -680 -94 -146
3.1289 -594 -2682 -144 881 2358 -1295 -360 14
3.1230 888 1197 -210 -1244 2012 -873 4528 1765
3.1172 -830 2934 137 -2420 -1406 3169 1262 1916
3.1113 3198 -485 436 813 1260 -2447 -1524 2312
3.1055 -2386 -2776 -1252 -2454 -2214 -930 -2237 2232
3.0996 -1058 2715 -165 504 1457 -1164 -42 2017
3.0938 1371 854 452 2308 -287 -1807 -900 -63
3.0879 -2811 750 -1428 1881 1124 -462 -1105 -524
3.0820 2 -121 1405 432 962 -960 -2283 1929
3.0762 -1395 275 1377 -1474 -156 -1931 509 -310
3.0703 -1100 -1107 -102 845 1 1690 290 98
3.0645 590 146 2319 414 -105 214 -1776 -203
3.0586 441 2865 112 64 -1291 -36 5 -1526
3.0527 2763 -254 1945 661 -1271 1865 637 45
3.0469 1254 -1649 1982 -39 -329 7 343 606
3.0410 2066 2127 -970 -301 805 735 1116 150
3.0352 1417 752 -1180 -63 1769 -1893 1848 1399
3.0293 -609 -765 245 -550 -181 1902 90 -1224
3.0234 2168 -1975 1228 603 689 -564 -94 1431
3.0176 731 3923 1140 3127 -449 1907 -251 827
3.0117 3705 2386 856 -1089 1782 862 5544 2435
3.0059 191 -96 2071 -1419 236 -2925 543 1795
3.0000 4371 1483 -377 231 -1500 903 1263 1182
2.9941 -1153 2210 1380 2273 -725 474 1669 1596
2.9883 1527 1208 -1575 -436 3209 1647 1331 365
2.9824 1918 738 453 3286 1517 2851 92 -1075
2.9766 1925 290 1633 2178 524 1593 1076 -1381
2.9707 1419 1920 716 2867 -90 -959 -33 2305
2.9648 223 -2169 3872 -2452 681 -939 -279 -1627
2.9590 1620 -55 3219 1441 470 1674 -116 815
2.9531 1211 1145 2218 -511 -617 2373 1265 1092
2.9473 1894 1031 2011 1878 -2335 3465 1223 3541
2.9414 1225 2259 2492 -444 2005 -310 2276 2778
2.9355 220 3203 1918 1574 619 167 1070 2608
2.9297 1517 1952 831 869 233 1562 848 4233
2.9238 -352 430 516 1388 733 3765 4375 1774
2.9180 409 2347 941 2044 289 2608 1359 396
2.9121 3455 2051 2130 3168 539 1337 2590 -42
2.9062 4836 1061 3662 -188 2211 1148 1913 1978
2.9004 -1153 1549 2646 -669 -367 1442 921 1062
2.8945 3195 -924 2840 2657 1066 2122 2390 2117
2.8887 -856 2729 2079 34 -1287 1611 3561 3238
2.8828 3107 4264 1698 3949 607 987 1514 727
2.8770 5114 67 3872 1831 1200 2839 2792 -450
2.8711 636 3869 5492 2403 938 3314 -1140 4722
2.8652 4357 1174 1481 607 3704 3192 3561 1406
2.8594 3654 3729 3600 6035 3950 2931 4124 2955
2.8535 2197 2522 973 4543 1946 2757 -94 1015
2.8477 1988 4211 975 5125 4063 3134 4862 622
2.8418 1195 3910 3044 4484 2138 1536 1449 2724
2.8359 3379 375 590 349 1570 1867 1751 48
2.8301 3763 4086 2192 -447 2547 2863 685 2004
2.8242 915 4879 1830 -965 3259 2727 2995 3330
2.8184 3161 3894 3574 1762 3145 2529 4182 2099
2.8125 815 3275 2434 5128 3121 3153 5246 1953
2.8066 1348 3255 2874 3934 3013 2348 3230 3568
2.8008 3929 3876 5299 5028 4055 3045 2814 1356
2.7949 2230 3971 877 3635 1842 2207 1378 3597
2.7891 4950 4758 2382 3574 3620 5293 425 28
2.7832 2756 4532 4207 2083 4887 6032 3943 1926
2.7773 4416 2852 5021 3795 5785 2591 4023 4336
2.7715 1759 4327 4879 1639 3984 2536 1244 4700
2.7656 4212 4756 3870 417 4057 2123 4060 3383
2.7598 4905 980 3989 4377 3318 6539 2732 2770
2.7539 4619 4416 5141 2217 357 6262 3240 3008
2.7480 3436 5618 6342 5328 3177 6760 4144 3334
2.7422 4327 3720 2973 4466 2797 2929 5790 2793
2.7363 4982 5624 5380 5218 4800 7645 5302 6558
2.7305 3605 5776 4337 8133 3680 5479 5404 3358
2.7246 4542 4954 7746 3664 5470 6438 2306 8550
2.7188 7786 7249 5936 6514 8250 6818 7221 6196
2.7129 7526 4599 7617 5363 9266 5040 6570 6830
2.7070 4475 4630 4380 6760 6607 5974 5367 7502
2.7012 5001 8104 7155 6431 6632 6383 6664 6223
2.6953 6557 9353 9965 7645 3143 7806 7387 5038
2.6895 9276 7870 3500 7832 6048 7894 5845 10163
2.6836 10255 6032 5900 9835 7145 7991 3728 8934
2.6777 8741 9171 10202 8270 8456 7251 10403 10661
2.6719 8530 9351 7373 12163 11699 9864 6558 11902
2.6660 8423 10905 7004 12050 13063 12217 12053 11216
2.6602 12489 10879 8958 10733 9034 11864 14477 11422
2.6543 12482 11843 12404 12995 14972 14239 12287 13779
2.6484 14793 16909 16386 17267 12452 15890 18010 15915
2.6426 14378 18029 18042 17866 16969 17954 17309 17850
2.6367 18169 17255 19342 20344 21292 21336 21215 20561
2.6309 24136 22753 22366 24911 23457 24969 25853 27822
2.6250 28009 30349 30918 30969 31261 34130 35807 35245
2.6191 40145 38878 42745 43580 43271 48884 51276 51770
2.6133 58432 57882 64661 67680 73855 79753 87264 99217
2.6074 108523 125324 138394 162748 192332 235598 293224 383047
2.6016 514790 657371 646765 372052 122655 6819 -46171 -62129
2.5957 -68923 -67884 -65932 -63249 -60355 -57553 -55389 -50615
2.5898 -51204 -49098 -42325 -41956 -42036 -35323 -35464 -34590
2.5840 -36657 -31595 -32214 -29702 -31282 -30463 -28779 -26338
2.5781 -27249 -26348 -26645 -25767 -22542 -25004 -21805 -21804
2.5723 -21295 -20675 -20371 -17194 -20530 -18706 -17825 -17840
2.5664 -18649 -17858 -17317 -18038 -18148 -15215 -15906 -14485
2.5605 -15411 -15681 -14694 -14029 -13857 -11792 -13861 -14708
2.5547 -14032 -13128 -14724 -12170 -14727 -11509 -12993 -11777
2.5488 -12731 -13805 -11501 -12095 -9559 -9372 -11573 -13031
2.5430 -11468 -7606 -11707 -9612 -12409 -12284 -8987 -9937
2.5371 -9084 -9343 -10078 -9060 -8692 -11507 -6818 -8424
2.5312 -7002 -11406 -10440 -9622 -9716 -8824 -10050 -8071
2.5254 -10365 -5486 -8093 -9853 -8017 -8632 -7165 -7026
2.5195 -7008 -7580 -4447 -4969 -8291 -6281 -5349 -7009
2.5137 -6743 -8882 -6842 -5822 -9699 -7054 -5377 -5414
2.5078 -5911 -6619 -7351 -5448 -5930 -6029 -4348 -6588
2.5020 -6684 -5676 -6959 -3640 -4595 -4922 -7762 -2688
2.4961 -4382 -7491 -8028 -6707 -4931 -4243 -4183 -6480
2.4902 -4897 -4396 -5285 -5204 -4470 -6818 -9720 -5606
2.4844 -5928 -3865 -4570 -1746 -5404 -1089 -2843 -3691
2.4785 -5360 -2947 -4416 -1502 -5319 -5409 -5277 -4998
2.4727 -2194 -4210 -6939 -5463 -2580 -3755 -4282 -4965
2.4668 -2677 -3536 -3976 -1697 -1324 -1788 -5793 -2360
2.4609 -4689 -6792 -6614 -5108 -3706 -3421 -2964 -4591
2.4551 -3984 -4017 -3118 -5170 -2246 -3265 -8564 -2157
2.4492 -769 -5506 -3496 -3401 -1672 -2119 -1018 -5424
2.4434 -2585 -4676 -2922 -3643 -3718 -2031 -4090 -5455
2.4375 -3655 -3654 -4164 -4164 -3906 -784 -855 -3012
2.4316 -6309 -3118 -2383 -3578 -1337 -2756 -2696 -3658
2.4258 -5939 -2613 -5985 -69 -3413 -2598 -2201 -4090
2.4199 -2370 -3571 -1264 -4454 -3714 -2873 -2390 -4454
2.4141 -1796 -22 -2757 -2895 -5177 -3963 -1261 -93
2.4082 -2147 -4206 -1266 -3700 -2544 -2035 -2744 -3120
2.4023 -3055 -2116 -4529 -3038 634 -2469 -1689 -1926
2.3965 -256 -1962 -4664 -1278 -1670 -1320 -4878 -2722
2.3906 -1947 -1379 -3015 -1087 -3688 -4251 -3791 372
2.3848 -2658 -3001 -677 -6059 -6286 -1653 -929 -2085
2.3789 -706 -1095 -1864 -2996 -1013 -1739 -1679 -2864
2.3730 -4243 -1964 -3543 -109 -1966 -2512 84 -463
2.3672 -4376 -576 -2784 -5048 -1798 -1066 -1546 -1878
2.3613 -124 -2720 -3833 -2299 -3326 -770 -1906 -2629
2.3555 -1783 -682 -4143 -3802 -3894 -837 445 -1175
2.3496 -761 -2629 -1489 -1465 -739 -1049 -4363 -1365
2.3438 -2527 -2655 -4921 -1342 -1332 -809 -1315 -977
2.3379 -2922 -2955 545 -3399 -2554 -1647 -1159 -1578
2.3320 65 -2046 -2963 -248 222 -1274 -3570 -2001
2.3262 -1315 379 -903 -1382 -2290 -9 -2477 -1091
2.3203 298 469 -1068 -398 47 -2088 607 -2110
2.3145 -2700 -203 -2607 777 -475 -1429 709 -871
2.3086 -743 -870 -1955 -296 -2195 -1713 13 -2110
2.3027 -178 1437 1047 -1894 -129 -303 -180 -1776
2.2969 -1784 -500 -1434 249 -894 671 -870 -832
2.2910 -3018 1200 -40 -2502 -752 -3834 -2768 -3704
2.2852 -1009 629 -773 -1688 379 -826 -3925 -2614
2.2793 -1827 -964 35 1202 -3086 -1828 -1806 -2781
2.2734 -253 1023 -3691 -1045 1467 -1672 -788 -2268
2.2676 -678 -2245 -156 -1402 1104 -2535 -2646 -497
2.2617 -702 -2557 -1344 -3950 -2725 -135 588 -2896
2.2559 320 -1086 -1928 269 -2972 587 -2667 -891
2.2500 -156 -1803 -1896 -1845 -73 -639 -1012 -490
2.2441 -2293 -3165 830 65 -1094 2526 -1287 -622
2.2383 -1692 -1134 -1285 -865 -19 -4234 -2564 -1973
2.2324 -1170 -2331 -26 -2139 1739 719 -2409 884
2.2266 1396 466 -618 -133 -1605 -1064 1814 -2972
2.2207 145 -49 290 -2247 -5122 -1487 -2173 1243
2.2148 -495 -2546 1924 -111 -3340 -1452 554 -3473
2.2090 -840 -1794 759 -424 -2931 -595 212 -1286
2.2031 -1115 530 -2001 -1480 -368 1409 -2165 -1213
2.1973 -589 -1055 855 -1245 -2379 -1090 870 -587
2.1914 -1273 -2738 500 -3033 1087 -200 -1146 -1128
2.1855 -1501 -446 1348 -1025 -606 -1335 -729 -417
2.1797 -1908 -1274 576 2029 -3897 1229 -884 -1096
2.1738 -448 752 -339 -1050 -3465 -172 737 -2100
2.1680 -3042 -82 1686 2523 -1503 -2120 1198 -2103
2.1621 -506 13 -1457 -1219 1147 -262 -1004 1622
2.1562 -581 -631 96 470 -2837 546 -796 -47
2.1504 -965 576 -1744 1678 -2012 -2261 -87 -1697
2.1445 -4889 547 -838 601 128 -1050 -963 -3209
2.1387 -762 259 -772 366 1517 -122 2201 2085
2.1328 1991 -1906 -1036 707 -1181 417 -185 831
2.1270 261 -3558 -133 -405 -3542 1687 2335 -45
2.1211 -1342 314 -1602 -959 1096 2682 -770 -1132
2.1152 -2937 -685 -208 -2599 -1523 -1207 1654 -2578
2.1094 472 1335 1803 194 1250 -923 291 -1124
2.1035 2334 -1811 -701 825 1684 773 -370 -966
2.0977 150 -171 2771 425 1633 735 421 1773
2.0918 2112 4094 1151 -1804 -2484 3899 2733 3255
2.0859 36 -900 -2204 2975 549 1360 299 -21
2.0801 1911 -277 756 2628 -637 653 -1216 2324
2.0742 -1706 -867 454 645 -974 -1150 -1852 676
2.0684 -954 -731 33 -393 -155 -1079 -2003 -40
2.0625 1006 -765 -1781 -284 642 -986 -1965 2336
2.0566 2832 -338 -1098 415 376 1272 897 1714
2.0508 1532 2028 -661 -2092 -2465 -1954 -355 2034
2.0449 -1071 886 -1085 1272 1268 855 -1086 95
2.0391 -1252 -1633 1733 -581 2617 -1340 -761 229
2.0332 -201 1344 1052 405 -922 -265 3411 1193
2.0273 478 1449 492 -809 -236 2698 1337 6
2.0215 1202 2110 2070 1325 -79 2030 2636 -1994
2.0156 -749 -1570 -1583 -281 -1206 1052 281 1249
2.0098 1422 253 515 1067 -254 -1474 -1018 -2438
2.0039 -972 1306 -1626 1617 419 -161 -1428 1289
1.9980 -549 1166 -466 2270 3619 -21 -623 -403
1.9922 411 2227 665 -270 -821 -469 918 451
1.9863 3011 642 -837 679 -604 625 941 -14
1.9805 1130 -480 2325 -1026 2693 374 -499 410
1.9746 -398 20 92 2031 2053 653 2062 841
1.9688 -2707 669 305 1785 -1027 4252 1044 1076
1.9629 -352 838 1076 253 2047 2490 89 423
1.9570 -17 -1222 2321 2697 1725 4082 1414 1346
1.9512 1378 596 2220 2027 1508 910 1854 1598
1.9453 1125 271 2832 -2421 1779 2292 392 1487
1.9395 710 77 -2256 640 -703 2225 2351 -1658
1.9336 -1929 2756 1798 2060 -2217 1416 805 2427
1.9277 2360 -4107 3997 -382 1438 -156 641 -1914
1.9219 1259 825 1344 138 170 513 -326 -390
1.9160 -36 -622 1570 -593 2808 844 1176 -1182
1.9102 1052 3047 -658 3002 -150 202 120 2509
1.9043 3373 3739 2918 1901 -630 735 -879 729
1.8984 1531 4076 725 -1969 -551 1810 2864 -1607
1.8926 55 955 -304 1347 65 4316 -352 369
1.8867 2266 1581 2093 484 3557 -360 -290 958
1.8809 1782 4044 1896 1232 545 1082 -136 3063
1.8750 2428 511 2939 893 459 984 82 189
1.8691 -38 390 2100 508 2332 2523 1575 886
1.8633 1727 624 2138 2958 -22 -503 2330 -1614
1.8574 193 2310 -306 515 736 57 1098 56
1.8516 2806 3248 807 -1515 172 462 467 -542
1.8457 1382 1214 2603 2347 3490 1341 1602 1968
1.8398 2062 3111 1982 1921 1877 2732 3627 967
1.8340 223 1422 -1070 1782 1151 752 -1532 2672
1.8281 -1099 4184 540 892 2130 2080 -1221 555
1.8223 2707 339 -68 802 2209 2876 4241 604
1.8164 1030 2334 1586 -2877 665 34 962 1690
1.8105 497 2186 4295 712 544 1600 2744 239
1.8047 1181 1691 1196 6146 3310 1734 2149 1693
1.7988 1606 2454 1636 34 2347 695 688 176
1.7930 2801 -861 1214 1697 160 1866 323 1357
1.7871 3329 -523 5157 980 1416 2042 3337 1869
1.7812 2747 2002 2980 -123 3119 -105 949 2120
1.7754 630 491 66 1145 14 2140 1168 1727
1.7695 1777 69 -863 520 1246 552 655 1256
1.7637 -65 1609 2874 920 2613 -666 1350 2257
1.7578 3755 1642 -606 -688 1539 4144 1264 -45
1.7520 1950 3590 2173 1516 3444 817 3488 1104
1.7461 452 1102 1650 2504 -16 2712 1496 714
1.7402 3054 1444 2475 778 1856 658 4236 -50
1.7344 2796 3305 1286 2294 -1672 4100 2043 1156
1.7285 2901 2059 929 3707 981 4038 1063 1
1.7227 818 2655 934 2314 2147 3526 603 386
1.7168 3362 1802 1168 1278 -2942 3368 2803 4164
1.7109 97 1405 1976 3291 2669 4551 2768 1991
1.7051 2420 -83 1535 2710 4583 2731 2967 1409
1.6992 3039 65 2951 -1301 2569 2377 3585 3813
1.6934 2553 3094 1476 5212 395 4629 1793 3538
1.6875 2092 2812 3083 -141 -355 1831 1120 1578
1.6816 2747 1236 1135 2509 2276 2000 2010 -1199
1.6758 6937 3991 1332 1123 4285 3025 1305 4020
1.6699 1043 3582 1379 2169 1826 297 1453 4374
1.6641 2495 2954 4444 8617 4452 1049 3635 2359
1.6582 2739 2718 1113 3813 2277 3923 5848 4358
1.6523 3603 1664 4246 4347 3487 2737 283 5522
1.6465 1383 1636 3065 3215 5579 3046 1565 904
1.6406 3326 3909 2824 1753 4371 5218 2528 4814
1.6348 3710 3199 3407 1431 4941 613 1765 3506
1.6289 5191 3956 5858 2885 4021 4145 4939 2533
1.6230 2203 2698 2355 2061 3136 3342 1972 201
1.6172 2043 3512 2800 4264 4974 1920 197 1017
1.6113 2331 2550 3963 3664 3947 2642 2033 2747
1.6055 283 2331 4409 5385 4979 4648 3594 4082
1.5996 3464 3218 1418 3480 4604 4357 3165 2631
1.5938 3574 3591 3502 7441 3604 4330 6043 4449
1.5879 3572 3747 5078 4846 4549 2789 2783 3777
1.5820 681 7325 4234 4981 2876 4239 3956 6027
1.5762 3079 4293 3453 6715 3468 5203 1100 6432
1.5703 4499 2040 5952 3566 2948 3246 4171 5336
1.5645 4255 3178 5627 5036 3853 5204 983 4585
1.5586 5207 6414 3903 1916 3909 4319 4221 2500
1.5527 7230 6692 7645 4174 4219 5182 4979 5342
1.5469 5338 2235 4969 4964 2800 4644 4752 2833
1.5410 6968 5397 4338 5750 4253 6895 5641 5254
1.5352 5337 6145 5925 4691 4818 4835 3440 4308
1.5293 6914 5663 3502 5333 6743 4368 2441 6927
1.5234 3656 5929 1582 3778 3183 5272 6891 4178
1.5176 4686 4028 4253 4152 3532 5075 4782 4668
1.5117 6492 3045 2259 5842 6829 4067 6286 3046
1.5059 4544 4614 5092 4111 4798 4017 6066 4413
1.5000 5860 5392 7518 5391 3187 2118 2702 4952
1.4941 5776 4486 6616 6267 5416 6728 5606 7214
1.4883 5890 4411 3950 4027 5149 4589 6581 4294
1.4824 5526 5956 4661 4180 8133 5948 3988 8024
1.4766 6452 6410 5630 7295 9041 6032 6470 5928
1.4707 7639 5763 6485 7245 5528 4972 4319 6120
1.4648 9664 8782 3662 2243 3372 3962 6580 6184
1.4590 6913 7757 10642 5874 6037 5558 3412 7194
1.4531 9042 7793 7093 6339 6226 5356 4378 5493
1.4473 7497 9151 6594 7625 8033 6673 4725 6140
1.4414 6916 4402 6296 9689 6475 5693 5498 6981
1.4355 4595 6816 9593 8688 7341 7045 9751 6576
1.4297 5398 4211 5068 3932 6532 7364 8258 6703
1.4238 6011 7604 5193 9375 6829 6506 5732 7579
1.4180 8701 6942 8003 8033 8411 6103 7677 12149
1.4121 8997 7743 7919 5766 10115 7735 8291 6668
1.4062 11176 5434 5693 6949 7102 7414 5902 6441
1.4004 6505 5143 7890 8105 8528 8072 8075 7249
1.3945 9107 8584 9077 6646 8023 10190 8870 10234
1.3887 8996 10979 12393 7057 6392 5546 12618 8363
1.3828 6460 9112 9216 9083 10652 8432 8477 9931
1.3770 9756 7777 8637 9052 10343 9172 10033 8998
1.3711 9266 10838 11189 12523 9949 10814 10324 8094
1.3652 12805 9584 12352 10666 11420 11795 11764 10543
1.3594 8606 9925 9765 11322 11758 13063 11363 10119
1.3535 13209 11303 9322 10096 13562 14572 12476 9986
1.3477 13466 10382 11716 11035 11318 11804 12926 13263
1.3418 13211 11037 12922 12154 11790 12804 11857 13499
1.3359 12286 12912 14686 11253 13547 13188 15243 14483
1.3301 11403 14078 10808 14712 11402 14306 14276 13446
1.3242 16269 16339 13797 13036 14059 14504 15356 15814
1.3184 12779 16015 14231 13056 16623 14388 14812 17256
1.3125 12921 16324 13773 14679 17681 17820 17336 15615
1.3066 17258 15200 13142 15863 16077 17556 16171 17306
1.3008 16833 17842 16620 19693 16471 20984 18684 19573
1.2949 18604 21446 18523 18316 18471 19269 21928 20273
1.2891 15042 21402 20077 17557 19781 19002 20436 21242
1.2832 21052 24661 22126 20759 21620 21832 22828 22282
1.2773 25459 22429 22235 22571 21798 25003 25511 24692
1.2715 25522 22510 25057 22109 25203 25744 24553 30420
1.2656 27265 27741 28697 28614 25181 28121 29190 28370
1.2598 29566 29724 29522 30742 30568 31739 30545 31727
1.2539 34217 30877 32384 31430 32659 33423 37122 36918
1.2480 36059 34330 35722 36419 40127 38182 37437 41155
1.2422 38857 39280 37160 42302 44138 44060 45666 48460
1.2363 46313 48624 48896 48721 52223 51817 55311 56011
1.2305 56941 56902 61295 59842 60157 64482 65792 66268
1.2246 68502 71358 75973 78140 81963 82582 86590 94019
1.2188 99272 103389 108103 115313 121692 130492 144402 160472
1.2129 174517 200058 228796 276685 336541 427889 543948 581176
1.2070 406691 203766 106862 61470 47366 48760 52378 63839
1.2012 69588 83459 96317 109422 123336 143272 165702 194507
1.1953 229899 273580 332536 426272 554858 747231 969166 1000000
1.1895 617816 226909 30318 -44827 -71609 -80470 -78757 -74841
1.1836 -65556 -54180 -47824 -34831 -22741 -12205 1824 22676
1.1777 40283 63440 100281 150784 216702 316391 429702 422219
1.1719 220390 36943 -53053 -88028 -100635 -104133 -101852 -100673
1.1660 -98088 -92965 -89176 -87305 -86227 -79968 -77608 -75654
1.1602 -73253 -70432 -71789 -67814 -64660 -66386 -62913 -59744
1.1543 -58756 -60936 -55125 -53968 -55312 -54045 -54428 -49688
1.1484 -49768 -48360 -49185 -45447 -46289 -43816 -44270 -42376
1.1426 -42205 -41484 -40221 -42587 -39004 -41549 -41873 -37926
1.1367 -40153 -37053 -36669 -34183 -37080 -35579 -34217 -36006
1.1309 -36321 -34398 -31100 -34552 -33831 -31026 -30059 -31254
1.1250 -35588 -29654 -31742 -30749 -28513 -28549 -30089 -29470
1.1191 -27486 -29845 -27950 -28788 -28637 -27012 -27577 -28488
1.1133 -27288 -26013 -25749 -27095 -25470 -23126 -24470 -25185
1.1074 -25863 -24555 -24473 -22238 -23947 -23587 -21094 -24804
1.1016 -22829 -22989 -23351 -21935 -22856 -22766 -21831 -22604
1.0957 -20654 -19038 -21376 -18537 -20907 -20966 -21330 -20695
1.0898 -19298 -21918 -19973 -19472 -21128 -18229 -20093 -17690
1.0840 -18876 -20879 -17640 -19636 -16588 -19108 -17015 -17419
1.0781 -18340 -17197 -16427 -16445 -18695 -18788 -20506 -15718
1.0723 -16312 -16598 -16333 -13111 -15736 -17713 -16800 -15775
1.0664 -15290 -17516 -15088 -17117 -16578 -18041 -17128 -17747
1.0605 -17083 -14118 -15973 -20157 -16514 -13723 -15358 -16419
1.0547 -16655 -15988 -16903 -16171 -16766 -17561 -14525 -14590
1.0488 -13216 -16152 -14200 -16874 -12861 -13950 -15849 -12525
1.0430 -12791 -11769 -15108 -14849 -13227 -12547 -13408 -12777
1.0371 -14255 -12850 -12899 -11837 -13732 -11751 -13191 -11681
1.0312 -14641 -11599 -12571 -15264 -10245 -16648 -13422 -11155
1.0254 -14499 -14295 -12520 -11358 -11445 -10919 -13345 -11565
1.0195 -11708 -12237 -13103 -12287 -12320 -14476 -11028 -11561
1.0137 -10503 -11077 -13682 -12885 -11184 -12010 -11416 -10222
1.0078 -12201 -12729 -10710 -11449 -9982 -8046 -12461 -10885
1.0020 -11266 -9985 -11252 -12323 -10792 -10875 -9879 -9843
0.9961 -8265 -12779 -10282 -11943 -8982 -9116 -9260 -10957
0.9902 -9604 -11302 -9193 -9206 -11128 -10803 -11291 -10670
0.9844 -10331 -8106 -10638 -12838 -10102 -11268 -9081 -6879
0.9785 -9893 -12102 -8914 -10872 -8464 -9011 -11431 -8746
0.9727 -8835 -10072 -8583 -11144 -11803 -9576 -10160 -9454
0.9668 -11339 -8711 -8658 -10510 -10118 -8870 -11106 -8997
0.9609 -7309 -9177 -10988 -7250 -9566 -9153 -8966 -8532
0.9551 -8401 -8276 -8312 -10704 -9502 -8371 -7904 -7517
0.9492 -9837 -9531 -6244 -9864 -8391 -8141 -6044 -10588
0.9434 -8759 -9115 -8160 -7685 -7594 -8825 -6046 -9339
0.9375 -9274 -10436 -5652 -7196 -7291 -9726 -6624 -7200
0.9316 -7940 -8923 -6645 -7730 -6877 -8498 -7998 -6375
0.9258 -6274 -9091 -10532 -7007 -7034 -9512 -7134 -7541
0.9199 -7106 -9339 -10192 -7544 -7249 -7279 -7892 -8036
0.9141 -9309 -11274 -8281 -9084 -8706 -5783 -5985 -11094
0.9082 -7050 -8670 -8794 -3699 -10551 -7017 -7075 -6923
0.9023 -7291 -6731 -7893 -5548 -8057 -9400 -7997 -9399
0.8965 -8066 -6185 -6600 -9283 -8409 -8199 -7324 -9697
0.8906 -4787 -6932 -10542 -6693 -7567 -9539 -8457 -8137
0.8848 -6079 -8868 -6450 -5373 -6296 -8937 -7899 -8897
0.8789 -6605 -5020 -8255 -5469 -7349 -6601 -4678 -7927
0.8730 -9375 -6436 -6449 -9104 -6292 -7093 -5964 -3538
0.8672 -7482 -5644 -4861 -6493 -6389 -10024 -3418 -7702
0.8613 -8704 -4324 -5082 -3872 -7278 -7347 -6829 -5970
0.8555 -7526 -5600 -5544 -4851 -7007 -6775 -6860 -7913
0.8496 -7214 -8956 -6693 -7764 -6757 -4793 -4795 -9300
0.8438 -8783 -7519 -5338 -6969 -5955 -8036 -6203 -6226
0.8379 -6375 -7223 -3918 -6047 -6115 -7701 -5261 -6713
0.8320 -7413 -8074 -5127 -9177 -4683 -7651 -8144 -7405
0.8262 -5588 -7345 -7311 -8199 -6730 -7088 -6670 -6248
0.8203 -6432 -6278 -4092 -3887 -6668 -6075 -6608 -4522
0.8145 -6263 -5257 -3160 -6337 -2437 -7791 -6886 -6145
0.8086 -8678 -6140 -7182 -7068 -6591 -5804 -7540 -5868
0.8027 -7846 -5946 -6511 -6940 -4402 -4815 -6459 -8993
0.7969 -4070 -5250 -6810 -5428 -6495 -4989 -6916 -8342
0.7910 -8299 -6370 -2077 -4636 -3945 -4205 -7234 -5297
0.7852 -5434 -4121 -6964 -3929 -4354 -7083 -2891 -5267
0.7793 -5885 -5787 -6969 -6224 -5670 -4455 -7092 -3785
0.7734 -3626 -8093 -2255 -3042 -5364 -3715 -5116 -2653
0.7676 -4327 -7057 -5468 -5750 -7640 -5163 -4717 -5611
0.7617 -2414 -3963 -6414 -5140 -4605 -6721 -5326 -5633
0.7559 -3728 -4581 -3654 -5040 -1646 -7387 -7522 -5166
0.7500 -4689 -4572 -4449 -3355 -3394 -6289 -6971 -5535
0.7441 -6605 -3977 -4238 -2529 -4885 -3904 -3614 -8635
0.7383 -8358 -4580 -6186 -1703 -812 -6089 -5523 -7102
0.7324 -7073 -4495 -4313 -6422 -7716 -4254 -4710 -4076
0.7266 -4655 -3634 -4558 -3473 -4126 -7251 -4443 -6401
0.7207 -4696 -5968 -4723 -5521 -7046 -4979 -5078 -3946
0.7148 -8311 -5371 -8799 -4099 -4492 -6360 -4970 -6035
0.7090 -5666 -5596 -4413 -5112 -4386 -7541 -5716 -5917
0.7031 -5404 -3858 -5033 -3287 -4474 -4748 -2771 -5659
0.6973 -6399 -4633 -5956 -3731 -4577 -2180 -4622 -5184
0.6914 -5610 -4659 -5860 -6605 -3821 -5670 -4577 -6298
0.6855 -4284 -3498 -4595 -5497 -5645 -3461 -2492 -4567
0.6797 -3271 -5466 -7764 -3505 -3121 -4046 -4806 -201
0.6738 -4623 -4345 -4176 -2184 -6860 -5258 -6791 -7165
0.6680 -6323 -6540 -3808 -4953 -3392 -5087 -6611 -5420
0.6621 -6371 -4212 -3510 -3801 -3181 -3041 -5908 -5108
0.6562 -4105 -3406 -5352 -4595 -5263 -2288 -3974 -4091
0.6504 -5295 -5557 -8458 -2203 -2904 -3981 -3716 -4409
0.6445 -3461 -5131 -4166 -4098 -5493 -2111 -7162 -5031
0.6387 -3844 -5139 -2153 -5628 -3552 -4707 -4881 -3463
0.6328 -4504 -4390 -6581 -5642 -2083 -6014 -4471 -4252
0.6270 -4328 -3508 -2440 -4554 -2501 -2994 -6187 -4876
0.6211 -5510 -2875 -843 -3268 -2540 -5102 -3198 -3415
0.6152 -5603 -4261 -6516 -2229 -5102 -4129 -3547 -4058
0.6094 -4377 -1579 -5045 -4985 -4188 -7292 -4189 -4751
0.6035 -4905 -4230 -3797 -1559 -3719 -4067 -4973 -3667
0.5977 -6752 -6004 -2521 -3747 -2376 -5578 -1061 -2637
0.5918 -4921 -6077 -5766 -3973 -3115 -3359 -3519 -3256
0.5859 -5732 -1759 -1225 -7369 -4587 -4687 -2491 -2863
0.5801 -3698 -6255 -5425 -5068 -3765 -4105 -5018 -2421
0.5742 -2926 -1807 -4375 -3119 -3275 -1136 -2413 -3185
0.5684 -3518 -1194 -1844 -2753 -3476 -2240 -1601 -5661
0.5625 -3656 -6892 -2786 -5262 -4020 -4260 -1979 -6494
0.5566 -5071 -3733 -3196 -4234 -965 -7612 -5113 -4509
0.5508 -2733 -4278 -4617 -4355 -2570 -5763 -3567 -6001
0.5449 -4922 -3830 -559 -4144 -4899 -3643 182 -3036
0.5391 -3195 -3941 -4909 -3518 -1575 -7508 -2725 -5440
0.5332 -3633 -1769 -3231 -1947 -3822 -3324 -4001 -4708
0.5273 -3576 -1779 -4364 -5082 -4148 -5188 -6384 -4877
0.5215 391 -3059 -4184 -1364 -3681 -2544 -5436 -6235
0.5156 -1798 -3887 -3658 -2953 -3925 -611 -4985 -2892
0.5098 -2175 -4546 -2583 -5485 -2546 -2057 -2048 -5501
0.5039 -4226 -2828 -3700 -4280 -4529 -1753 -2211 -4171
0.4980 -1265 -3910 -2581 -286 -4947 -3711 -2764 -4099
0.4922 -4021 -3173 -5283 -3857 -838 -3636 -4018 -442
0.4863 -3082 -3904 -3258 -2613 -3072 -5785 -3446 -1112
0.4805 -2733 -1385 -4766 -4133 -3763 -3729 -2299 -2168
0.4746 -2652 -4791 -5297 -4995 -3742 -6066 -3664 -3512
0.4688 -2462 -2183 -5356 -3930 -2499 -3134 -3252 -1603
0.4629 -3406 -1821 -3310 -4037 -4855 -1130 -2330 -2443
0.4570 -7030 111 -1234 -3588 -3907 -3308 -3197 -3688
0.4512 -2963 -3026 -3459 -5355 -2689 -3982 -4864 -1559
0.4453 -4607 -3405 -5002 -4293 -2287 -3843 -4575 -1848
0.4395 -4423 -2503 -4128 -3540 -3778 -4650 -2344 -3860
0.4336 -1485 -3856 -3924 -5063 -3136 -2304 -3742 -2788
0.4277 -1215 -3844 -6040 -3005 -3818 -4776 -2646 -2332
0.4219 -1349 -4963 -2676 -1921 -4853 -1927 -4518 -1766
0.4160 -3438 -1635 -5133 -3038 -4147 -3928 -3123 -3062
0.4102 -4409 -4769 -3059 -4913 -2376 -3742 -857 -1217
0.4043 -2090 -2905 -2848 -3294 -4436 -4330 -4775 854
0.3984 -3109 -4114 -3624 -4698 -2163 -3122 -6152 -4197
0.3926 -1753 -4561 -1658 -2220 -3792 -3226 -4048 -4286
0.3867 -3224 -3755 -3919 -3547 -3432 -880 -5756 -2568
0.3809 -4865 -5490 -1813 -975 -2151 -5454 -467 -3075
0.3750 -3164 -3248 -3314 -2975 -5300 -4473 -1458 -2764
0.3691 -2027 -4680 -4116 -4642 -4196 -3414 -5552 -4487
0.3633 -4530 -4957 -3655 -4108 -4061 -393 -5406 -3275
0.3574 -4367 -3217 -3052 -3270 -758 -3386 -3074 -2476
0.3516 -1780 -1902 -3280 -2947 -5178 -3786 -2231 -4227
0.3457 -3257 -2782 -5164 -4275 -4213 -2456 -1132 111
0.3398 -1357 -4945 -1760 -3429 -3407 -5639 -169 -601
0.3340 -3905 -2233 -3454 -3966 -2048 -2338 -2827 -3815
0.3281 -2775 -3312 -2628 -1290 -7218 -3141 -5103 -1753
0.3223 -3777 -3897 -167 -3164 -3964 -2035 -3087 -2350
0.3164 -4177 -2000 -1130 -1490 -2445 -2657 -2010 -1964
0.3105 -2672 -2537 -2233 -3928 -6460 -2729 -2627 -1053
0.3047 -3920 -1614 -2275 -3714 -5289 -1918 -755 -4451
0.2988 -1081 -2801 -2747 -1931 -3652 -6174 -4234 -238
0.2930 -2537 -6663 -4787 -3453 -1922 -3754 -3264 -1662
0.2871 -3291 -2839 -5601 -1847 -173 -3766 -1249 -4257
0.2812 -121 -2524 -5901 -1682 -4293 432 -2232 -114
0.2754 -3323 -2512 -3044 -3528 -3301 -2679 -899 -3387
0.2695 -897 -2013 -2837 -3294 -2031 -2410 -5473 -4117
0.2637 -3779 -4693 -1377 -1696 -3472 -3527 -1583 -1930
0.2578 -4184 -1599 -3719 -2130 -2746 -3305 -3280 -2440
0.2520 -2105 -2475 -1634 -951 -2818 1430 -991 -2281
0.2461 -1798 1172 -2103 -1074 -3482 -2977 -4335 -3947
0.2402 -1239 -1843 -3488 1573 -3516 -4356 -732 -3872
0.2344 -4514 -4394 -1271 -2182 -2487 -4188 -3182 -3358
0.2285 -461 -4776 395 -1179 -5099 -1389 -2514 1316
0.2227 -1561 -3069 -946 -3527 -5306 -2914 -3618 301
0.2168 -3968 -3454 -1919 -4777 -2894 -275 -1873 -1274
0.2109 -2201 -1564 -3067 -6275 -1980 -1787 -3110 -2319
0.2051 -2421 -1295 -2919 -1250 584 -2251 -4259 -3272
0.1992 -808 -3825 -3351 -3526 -5450 -2223 -4477 -4909
0.1934 -6888 -2505 -3865 -3351 -4311 -267 -1034 -1396
0.1875 -1547 -2351 -4998 -1127 -3658 -3924 -2304 -3737
0.1816 -4482 -4002 -517 4 -2570 -3657 -2054 -2520
0.1758 31 -1784 -1706 -3191 492 -2822 -3590 -4347
0.1699 -4448 -2208 -5421 -4377 -3130 -3975 -844 -2305
0.1641 -4351 -1489 -2714 -2368 -7609 -3055 -3272 -781
0.1582 -2234 -3331 -6265 -2877 -1324 -2606 -1928 -2556
0.1523 -724 -1372 -4363 -3827 -3350 -2755 182 -4419
0.1465 -2172 -1063 -908 -1216 -4968 -4485 -1376 -3486
0.1406 -4892 -3437 -2692 -5774 -1786 -3063 -3146 -3207
0.1348 -1490 -1096 -4604 -3335 -822 -2635 -1848 -4157
0.1289 -3815 533 -2868 -1005 -5162 -822 -1103 -1181
0.1230 -247 -880 -1601 -4511 -3339 -3177 -4705 -1696
0.1172 -2708 -2097 -4034 -2024 -2612 -892 -3550 -2119
0.1113 -5453 -1656 -2430 -1472 -2678 -4610 -3075 -2415
0.1055 -5456 -4709 -4169 -1263 785 -2559 -1456 -2250
0.0996 -1431 -546 -4976 -3027 -3640 -1187 -3153 -1496
0.0938 -1309 -3136 -2860 -3263 -2063 -365 -768 -980
0.0879 -5817 -5134 -4428 -3743 -1843 -2154 1645 -3155
0.0820 -2958 -2568 -6574 -2018 -1719 -1253 -1487 -2952
0.0762 -1268 -1314 -3654 -3610 -5949 -3018 -2931 83
0.0703 -2338 -3019 -3164 -2480 -6747 -3943 -2121 -888
0.0645 -1641 -1992 -3458 -4110 -5290 -2319 -2215 -2319
0.0586 -3210 -2815 -2767 -2688 -2742 -3649 -4370 -1569
0.0527 -1725 -696 -1219 -2486 -4378 -1993 -876 -2303
0.0469 -545 -971 -2159 -2052 -3541 -2527 -3305 -3769
0.0410 -2023 695 -2454 203 -1803 -2883 618 -1330
0.0352 -2139 -2995 -1631 2724 -2168 504 -1280 -1323
0.0293 -3025 -2302 -4162 -2782 -3180 -1008 -4233 -2820
0.0234 -769 -3460 -859 -5236 -3726 -2901 -2531 -2776
0.0176 -871 -1614 -1298 31 -3593 -3679 -1847 -2887
0.0117 -171 -3696 -2570 -3535 -1688 -1286 -3560 81
0.0059 -1949 -3064 1514 -3499 -2379 -4693 -1791 -2923
##END=
