##TITLE=Reaction mixture, aliquot
##JCAMP-DX=4.24
##DATA TYPE=NMR SPECTRUM
##ORIGIN=NMR Analyzer teaching set
##OWNER=public domain
##.OBSERVE FREQUENCY=400.0000
##.OBSERVE NUCLEUS=^1H
##.SOLVENT NAME=CDCl3
##XUNITS=PPM
##YUNITS=ARBITRARY UNITS
##FIRSTX=12.000000
##LASTX=0.000732
##NPOINTS=16384
##XFACTOR=1.0
##YFACTOR=6.82041935E-02
##FIRSTY=1.318801E+02
##XYDATA=(X++(Y..Y))
12.0000 1934 2176 100 -1147 -1639 47 -1534 -2156
11.9941 299 200 820 -1371 8 -97 -2260 808
11.9883 482 3586 305 -217 1850 299 1365 -548
11.9824 328 1538 1045 193 -1624 668 116 1082
11.9766 325 1633 -77 303 1001 -1631 -603 -750
11.9707 2973 -139 979 930 -421 -2327 1448 -611
11.9648 1078 -1959 -657 1887 2148 -1954 -2000 -66
11.9590 1093 241 456 -1484 881 1676 -654 -2151
11.9531 -1139 1143 -2602 -138 -1487 -197 -367 24
11.9473 2253 632 2002 -212 -719 569 -4256 -60
11.9414 241 -1853 697 -839 -3690 -320 -1469 -781
11.9355 -228 1878 155 -42 584 -2719 1861 -1616
11.9297 659 -1691 -1465 -594 2845 1047 -906 -426
11.9238 -1728 -51 -860 1084 -2036 -502 -1263 -1078
11.9180 1068 190 879 1785 1726 -2058 806 -2643
11.9121 -96 2881 -290 -554 256 27 40 -1136
11.9062 1624 1335 -318 473 989 1549 590 1044
11.9004 -395 -1605 -743 1530 1468 220 -851 462
11.8945 2497 2033 -1026 -65 -2178 -1704 283 37
11.8887 1448 1903 1253 1981 -821 -1694 752 4020
11.8828 536 -1728 364 2140 -1552 1206 -917 1911
11.8770 1179 457 3002 -613 -1029 2784 -1315 3300
11.8711 -60 -1556 -3 196 302 -288 1623 -3481
11.8652 -832 -393 2731 -2990 -510 -1715 -997 962
11.8594 617 2162 -899 404 1761 1356 -504 1693
11.8535 -1386 2707 232 -169 407 1275 2614 -213
11.8477 -551 881 -1308 -2545 1255 -569 1691 -1541
11.8418 -4346 425 233 2402 789 465 881 -551
11.8359 117 -2029 779 -1208 -669 1050 1374 -1511
11.8301 3008 -888 1254 1428 337 259 2698 1336
11.8242 669 -2738 -1121 1745 292 -1433 -964 -459
11.8184 1030 581 1497 -1226 1480 -753 -448 2601
11.8125 112 -209 -315 -577 2341 2066 1076 277
11.8066 1565 -116 680 603 134 2474 2635 1987
11.8008 -2871 2756 1054 -676 -36 1709 1764 1284
11.7949 212 54 1249 -137 -1347 -935 -209 499
11.7891 3398 -2055 717 -137 452 2032 1863 -236
11.7832 -837 -2045 -107 1872 -398 1057 1063 597
11.7773 1627 -170 -1244 -1759 1391 -543 -466 1252
11.7715 -1184 2657 1000 -790 -951 1624 -1776 -962
11.7656 10 305 23 581 -546 -182 1899 970
11.7598 -675 2574 -2987 127 1003 1460 168 -577
11.7539 879 -290 713 -4287 573 -1186 1412 1123
11.7480 1094 -607 652 -513 323 -203 -1307 2967
11.7422 1087 -3086 1341 -2092 -348 -873 -802 362
11.7363 -488 -2173 -9 548 2656 -622 -1785 -571
11.7305 981 -1326 -1082 832 -16 334 -944 -1240
11.7246 -486 -231 -501 647 822 823 720 -1329
11.7188 -1680 1204 19 183 -1740 -317 -957 -1297
11.7129 -945 -2242 128 1750 -1062 142 -1639 1008
11.7070 2797 -1851 -341 2137 552 173 -3066 -225
11.7012 1378 2156 963 -870 -1030 -2730 -1614 1685
11.6953 -172 -2009 1980 -2510 1892 -484 510 1020
11.6895 394 1909 24 -490 -993 -2168 -1042 1474
11.6836 1239 2089 4094 1071 752 -1973 -364 3296
11.6777 795 -207 465 -2845 -1252 -1965 -3208 1154
11.6719 1450 -265 520 -1511 680 1146 2304 2343
11.6660 732 -190 -1240 -909 926 849 28 2498
11.6602 974 25 -287 116 -1424 -1470 522 -877
11.6543 -406 1832 -289 1972 -12 2277 697 -2639
11.6484 1859 -311 -2948 171 234 -1937 -911 822
11.6426 2120 1712 1835 1682 -3729 -1090 281 -4034
11.6367 1156 1338 -1163 -570 -1409 -27 -60 -11
11.6309 -1533 582 -511 1427 470 -2227 -2165 105
11.6250 -728 705 1210 30 -2529 -1793 859 -1576
11.6191 1665 -136 780 -1326 -150 -4444 -312 863
11.6133 -1346 -1264 -80 98 -1213 1015 -2469 1673
11.6074 -2106 -1235 1999 -1492 -2481 114 -1380 -1675
11.6016 -1052 -1116 -1463 -1543 2420 -1009 1458 -2108
11.5957 817 -1876 -688 955 -796 -2948 -829 -236
11.5898 861 -1498 -447 94 -2475 -160 -1243 657
11.5840 -165 -249 -3624 -163 -556 -1416 -766 -1896
11.5781 262 991 897 -780 2521 1283 -1423 -209
11.5723 -2445 -177 1070 1904 -627 -2684 -255 2043
11.5664 216 1914 1243 2342 899 -997 669 3808
11.5605 -777 -2785 3158 614 -940 -911 -2311 1057
11.5547 215 -950 -635 -642 1602 -274 2071 -1257
11.5488 -918 -724 -808 -136 1540 1816 -1609 1919
11.5430 143 2385 -252 -1256 1185 936 -688 33
11.5371 196 467 -2573 -1809 84 391 -787 -2642
11.5312 2017 -462 -1571 2394 1700 1558 1253 854
11.5254 -1461 46 534 951 714 -1512 -907 -498
11.5195 -293 -1311 -2736 -1825 462 -16 871 -2832
11.5137 -624 1337 -2944 -1625 -2499 1818 47 -861
11.5078 225 -135 1358 1755 1373 515 1146 1220
11.5020 1749 -2756 519 118 240 -374 -110 742
11.4961 299 193 -1610 -1885 -1122 -2675 -775 -1274
11.4902 -2696 -2909 -705 -870 3263 1297 -1173 -749
11.4844 -1517 -1182 -526 -73 -935 1234 967 2936
11.4785 -1965 1015 -562 -2410 -452 -2465 -40 4108
11.4727 1959 2733 1793 -2323 621 214 652 -1558
11.4668 -2975 3159 1790 461 -737 274 -1861 1441
11.4609 248 -225 -645 -100 198 -604 1444 315
11.4551 -142 -1293 1828 1947 1034 -2767 -523 1490
11.4492 56 1915 -658 1196 788 -3671 -609 -356
11.4434 -941 -1340 2386 -179 1185 -2009 -3119 -710
11.4375 611 -1085 796 1205 -673 -89 -1107 1621
11.4316 2655 746 -758 -1058 -418 1336 -1136 2220
11.4258 -1834 -12 1977 2677 -611 1190 3798 1754
11.4199 -3288 422 3567 -1743 1371 -3133 2383 -1265
11.4141 1213 1368 -4174 -2147 495 -2285 -30 -1421
11.4082 2016 -764 -1373 964 1835 -234 420 740
11.4023 -741 -1782 799 -530 -2053 1284 653 213
11.3965 -1131 -334 915 728 -1238 -1354 514 277
11.3906 1274 -1738 1383 2647 1425 197 1360 -1931
11.3848 -665 3091 -2453 -1737 1235 -985 -848 -1680
11.3789 2525 -913 -416 -2721 1156 -13 749 2373
11.3730 230 -1789 -1521 124 1983 -1799 -370 -217
11.3672 987 -1337 468 1177 -56 -147 929 873
11.3613 1889 -1619 1847 -342 -1709 -830 -1851 -300
11.3555 1552 -3376 -1774 1153 -451 1190 -1992 -79
11.3496 -3911 -1270 1111 1825 2449 -84 -1317 -578
11.3438 -2878 2033 1768 -1365 2749 -2030 840 -1213
11.3379 -2608 594 -1739 1792 -1350 159 -718 204
11.3320 -949 1232 917 105 -190 2959 -1044 -658
11.3262 1159 -16 -2452 -213 -576 -1492 293 -1706
11.3203 -375 -1704 2344 -424 664 430 1060 -226
11.3145 1132 188 -3670 469 -1939 1426 328 -559
11.3086 -3786 -3209 -1766 -569 -2070 2978 688 -133
11.3027 -1480 -510 -356 -664 -116 1208 -2643 339
11.2969 1654 -2054 -284 -574 -1716 1425 -490 1719
11.2910 617 -418 432 -564 -2463 2135 550 1736
11.2852 -2718 1572 1237 -61 -3182 151 -1002 -289
11.2793 83 -1358 -196 18 2191 -152 3529 -1775
11.2734 -205 1861 -2358 930 593 -904 -361 2322
11.2676 -673 418 649 1813 -3102 -2209 -2013 -420
11.2617 921 1249 -430 2274 -111 1037 -1140 1251
11.2559 -1079 1740 1295 2806 -638 -1743 1246 477
11.2500 -793 -2009 1201 -2926 -699 1606 -378 688
11.2441 736 891 1589 981 -563 -1847 -428 -985
11.2383 608 1846 1175 -1045 302 8 -706 1951
11.2324 923 543 -1834 -3943 -1101 1711 -322 -37
11.2266 -395 722 -13 2573 -182 -394 2132 1127
11.2207 1045 792 -58 476 806 160 -2819 2067
11.2148 -721 -853 -513 -1084 -1316 -126 1327 -443
11.2090 710 -2028 1134 -1706 1050 -1112 -901 -1885
11.2031 -1905 -335 -1463 -334 1706 -1266 -476 -151
11.1973 -930 -49 350 1565 -1092 -324 -242 1829
11.1914 -1503 256 1154 881 -1063 -1552 -2778 -802
11.1855 -382 -2247 1265 245 -359 -795 711 -429
11.1797 760 -721 1587 -2444 -1608 2702 1568 2463
11.1738 -1189 1093 1502 1373 -275 2209 624 -1944
11.1680 3698 191 1886 -1041 -1401 1325 1234 -1118
11.1621 371 -1993 -3086 1640 -1718 1115 1600 557
11.1562 2278 546 440 2 631 529 -1406 -71
11.1504 -563 4267 1841 -1184 893 -2630 83 2727
11.1445 124 1926 -552 688 562 -3295 -1203 2845
11.1387 -1249 1808 2580 -68 1507 550 -892 879
11.1328 654 -1481 -668 -2023 -506 -60 -1470 -2799
11.1270 1012 1902 -1366 109 -1004 -3955 3173 435
11.1211 -2112 1904 1086 2122 1100 796 2156 -412
11.1152 360 -1630 -1719 315 349 -2380 560 1518
11.1094 -1886 -509 2574 -1275 858 1179 268 219
11.1035 852 431 225 -2215 367 -1182 2247 3329
11.0977 1672 -3228 1498 178 -1633 -1825 1591 -972
11.0918 -120 99 1414 -4017 1847 -1217 -609 928
11.0859 550 -3470 904 -230 -1547 -920 -2396 1176
11.0801 2217 -946 -706 -2187 -1060 -1530 35 2610
11.0742 1581 1468 -1458 1254 -1080 -1330 1100 -152
11.0684 3731 286 -460 1121 -1740 1021 2345 -205
11.0625 -772 1688 -1679 562 -790 450 -1180 910
11.0566 843 2635 -548 663 -2645 -1181 400 -2055
11.0508 -161 -1348 719 900 -709 986 -835 172
11.0449 783 837 891 2549 -970 -233 -2746 1309
11.0391 -1684 -893 -768 626 -424 -426 117 -503
11.0332 -33 -1473 -826 -1828 1285 1354 997 502
11.0273 -906 834 -2325 -3755 -1783 2245 368 2331
11.0215 -1070 1519 2389 1487 429 1619 -685 2649
11.0156 -1732 -1139 35 -1150 2632 1009 -1099 2516
11.0098 2037 -568 2346 1780 -754 -838 468 1725
11.0039 2358 2258 -726 -2679 -2533 2268 1588 1777
10.9980 -3 128 731 694 123 -1457 -2056 234
10.9922 -237 2128 -1601 -2981 -2950 -53 2517 -516
10.9863 -1052 569 2314 1631 1320 1398 -435 130
10.9805 621 2723 -3310 -820 559 -364 -193 -398
10.9746 -1433 757 1946 -540 660 1667 -985 -135
10.9688 -1956 2373 2582 -301 2999 1287 -2748 735
10.9629 377 761 1026 -681 1706 473 2847 -168
10.9570 -3763 2871 834 -2760 -912 -1194 1405 -945
10.9512 1745 -759 1443 -917 -1792 888 -350 779
10.9453 -2479 -1558 -521 2958 600 -2524 -4727 2791
10.9395 500 -1900 1483 1283 3224 293 -745 1231
10.9336 -2029 -671 -1500 -858 -1932 -2174 -1667 586
10.9277 46 -115 708 1127 718 3112 428 576
10.9219 -733 1633 2149 -4458 1229 -1649 529 128
10.9160 -1892 -2034 -385 3942 -1862 -610 -435 -401
10.9102 1689 3090 -67 623 -488 2366 -82 1029
10.9043 -291 1693 -99 -1267 2870 -2923 260 -533
10.8984 -1368 3138 510 -620 -1334 507 -5 -362
10.8926 -999 2290 328 -282 -1882 -1167 1102 -1130
10.8867 982 -167 596 524 -655 -397 -103 987
10.8809 3615 1309 -1968 3333 -176 -1042 188 -84
10.8750 382 -44 -39 1902 2549 148 2385 1404
10.8691 1795 403 313 1199 -1443 87 -1700 1372
10.8633 321 895 -504 -1154 1444 -646 -320 53
10.8574 701 92 -1562 -1574 1526 -472 -361 -1328
10.8516 1401 704 -811 -2586 2708 -842 -1747 -738
10.8457 -1710 -11 -831 -1780 1024 -1283 -2788 511
10.8398 -824 -1633 -2503 -1054 -907 -726 -755 1900
10.8340 1592 472 849 -685 -2185 800 2068 -1045
10.8281 -1038 -1049 -1986 825 -1629 2066 2501 129
10.8223 -64 -1282 1358 129 -2235 -1402 705 -746
10.8164 661 373 2157 -148 1592 1660 1987 -516
10.8105 421 3822 -291 -908 181 -1768 -1280 -642
10.8047 -425 1509 -1646 -275 394 -438 1114 3355
10.7988 -1620 -1304 -768 -816 -813 634 2618 3699
10.7930 -119 -3082 2344 22 -620 1649 -170 -336
10.7871 -1311 1384 1269 -1278 -841 1861 -1079 -625
10.7812 -1151 -358 1292 92 1496 903 -3032 -21
10.7754 -32 -2496 1175 -76 -757 780 1445 1085
10.7695 -789 -56 3677 -1945 109 50 2254 922
10.7637 334 -444 1863 106 -144 254 1033 58
10.7578 388 1195 -1084 -357 107 1028 841 -722
10.7520 -1549 -561 -750 1338 956 97 -1617 -1959
10.7461 185 918 565 -380 857 -2957 1722 2258
10.7402 262 361 -311 1344 -1372 -865 599 -2136
10.7344 740 688 -17 -744 2622 -803 233 1211
10.7285 -20 1574 4 385 -10 988 -970 1337
10.7227 1552 -1564 -2244 -1991 -1196 1035 98 2825
10.7168 2368 -2298 -583 -451 2411 1177 1392 -1219
10.7109 3048 -1656 44 -1443 -1345 379 -1345 1030
10.7051 779 85 957 1690 1638 -1708 981 1341
10.6992 -563 -580 1812 992 198 2152 1399 2603
10.6934 -581 1477 -2976 -966 2507 -1452 -227 -520
10.6875 719 1712 2405 -225 505 1315 1738 -417
10.6816 2035 -2157 418 -2065 -692 -1185 2659 2510
10.6758 1169 243 -2931 -2548 281 1096 771 -1090
10.6699 -1161 812 3409 1095 -56 -166 664 465
10.6641 -2143 2316 684 836 -675 1663 1520 -1088
10.6582 1542 -1068 -2767 1258 -1488 -828 -1402 -109
10.6523 -537 241 708 2447 686 764 737 1221
10.6465 1352 433 -1743 -1436 431 -474 -613 -779
10.6406 -1077 1642 1175 -1903 285 -26 -692 1572
10.6348 480 112 -1286 1427 373 425 -1034 2242
10.6289 -4641 -2084 -2492 -1935 -1541 -759 -498 293
10.6230 2031 848 187 -227 568 1211 -1098 2625
10.6172 -19 1284 -3672 288 -587 2045 1522 480
10.6113 943 -463 -1356 1716 -1801 -786 -1747 -1419
10.6055 -615 1255 -1455 1101 -2787 -1248 -1300 998
10.5996 1983 -3468 109 2428 38 2468 1734 429
10.5938 -2106 -990 2318 -1330 -1623 -679 1898 159
10.5879 -2284 -941 1015 1725 2290 770 701 -1450
10.5820 -843 -2044 -213 609 71 -1408 858 1377
10.5762 1856 -3231 -3621 -1630 807 1545 1095 58
10.5703 376 -367 -1012 -1477 4756 -371 837 819
10.5645 1342 -72 1400 2997 -954 -865 -1493 -530
10.5586 -1836 497 1003 1818 1931 -558 286 -1189
10.5527 97 141 751 -88 -1595 1499 -201 -2072
10.5469 -2560 1022 -2665 1011 2265 800 1218 854
10.5410 -891 332 -2788 927 960 224 1622 -250
10.5352 -2549 2117 151 -914 -773 -546 309 -1888
10.5293 166 -524 976 -473 951 -1311 533 -446
10.5234 1592 560 1522 -710 -897 -42 -1531 -403
10.5176 1881 -1597 -843 119 2432 3175 -821 -688
10.5117 392 -971 -2945 877 558 424 815 280
10.5059 -932 938 -47 250 -1624 132 -73 -1273
10.5000 -1135 -635 18 -928 -1626 110 -1802 479
10.4941 -1275 -294 1658 -3298 -1987 -772 -217 -1299
10.4883 -1399 -916 -1495 147 -1025 -237 57 1002
10.4824 -933 -629 624 -3198 82 -1336 1291 -486
10.4766 -1301 1543 -818 -1302 672 -2863 -256 1040
10.4707 -1858 1397 -450 -816 -2474 2082 1980 -509
10.4648 541 -2820 97 546 -1131 -952 -305 -1213
10.4590 -2496 1100 1281 850 1059 1522 -478 -4404
10.4531 19 -837 -1730 724 -1511 -1775 3534 -598
10.4473 228 852 873 -166 744 -150 -681 -402
10.4414 903 1009 635 -2248 -334 744 -585 721
10.4355 166 1752 -3386 241 1566 991 -764 -329
10.4297 -522 629 1091 -860 1565 676 -3083 -568
10.4238 -196 -1000 127 -82 -143 -416 413 -880
10.4180 806 -2629 98 -718 -571 415 -940 -4712
10.4121 -2158 -310 -414 -722 -960 1005 7 -1544
10.4062 -1279 1397 151 531 24 308 -803 -1450
10.4004 -1444 -1300 2600 922 78 -167 -2384 1120
10.3945 -2564 1508 -744 -2076 2164 -1455 -402 -237
10.3887 -2199 648 -1968 -288 -1682 2337 62 2144
10.3828 -785 330 787 95 -403 1649 552 94
10.3770 1209 -4026 -1534 711 -541 -407 -2180 -540
10.3711 2025 -738 -1480 -429 1554 -961 -2417 343
10.3652 -517 214 -2521 -1641 -459 495 2572 2014
10.3594 1676 1406 1534 941 931 -580 -727 1931
10.3535 -1722 -856 -337 273 -998 -680 -1171 -1105
10.3477 -579 4931 -1737 3597 -1836 260 -109 922
10.3418 -450 -1592 -819 -485 -2196 -137 137 -2219
10.3359 -1955 1177 -1402 -977 -876 -937 784 329
10.3301 3125 -540 542 -1028 1404 -2247 -1232 -326
10.3242 4110 3265 2929 -22 -2287 812 1587 -999
10.3184 2901 2906 -2499 -603 -394 -382 -226 56
10.3125 -381 3813 -696 -1808 1740 1478 -1685 -1314
10.3066 -1300 -3186 -1950 670 -1966 -371 -415 -874
10.3008 702 256 1842 507 -892 2475 451 729
10.2949 433 -486 -1383 1834 -1091 -453 1307 1477
10.2891 36 2956 -325 3476 2044 282 -343 1668
10.2832 -2516 1062 1015 2356 2088 454 711 -1422
10.2773 820 -1141 -2021 2608 2644 -159 462 3556
10.2715 -2003 2258 -458 947 -111 2298 1807 -232
10.2656 1783 1423 2104 -1557 1299 16 388 -2300
10.2598 3208 -78 686 -2190 -292 274 190 -1647
10.2539 528 -598 1348 -1689 1762 -1530 -1664 707
10.2480 912 649 -836 -425 -1357 1674 -2631 -1782
10.2422 -1740 777 -2219 1188 -2547 -2569 494 609
10.2363 -547 2004 -648 -769 -270 2002 -254 2814
10.2305 2056 1628 1360 1949 721 -3523 274 -192
10.2246 -1748 -2794 211 -1637 3 -1226 503 -1447
10.2188 352 -64 -687 -393 404 -3963 -2875 146
10.2129 39 357 507 -1457 1938 1131 511 -365
10.2070 -1064 -889 565 155 1234 362 -662 1743
10.2012 -2123 -2012 570 -721 -2134 -2206 2 2041
10.1953 2124 -156 -388 -1234 2830 -132 -561 1142
10.1895 1719 53 1843 -1878 671 894 617 988
10.1836 265 862 -3142 -1090 1279 -1655 -1325 3002
10.1777 103 410 563 2592 -394 -1232 404 2100
10.1719 -2660 -192 -590 210 983 467 -2350 -350
10.1660 -197 -72 1590 -483 -948 -245 44 1042
10.1602 -2575 -2035 -122 1387 -84 355 2611 173
10.1543 438 -61 1459 766 -377 1065 673 -717
10.1484 1113 3069 -1633 -1596 -168 -298 360 -49
10.1426 242 1688 1919 -3124 819 46 812 82
10.1367 542 -325 -958 -240 1215 61 -105 1875
10.1309 1295 -1313 -1187 -251 731 1552 -2541 1999
10.1250 89 331 1243 419 294 1481 1769 -1654
10.1191 -2359 -1569 400 -378 -296 -737 -1262 794
10.1133 -60 449 806 2208 3174 -871 1929 280
10.1074 663 1697 -873 -186 1463 902 2723 935
10.1016 200 -166 902 -2721 1935 494 -919 147
10.0957 814 -1761 1341 -3244 2174 -415 380 -389
10.0898 -893 1451 -1432 -109 811 -1809 927 -1333
10.0840 1315 -503 1939 -82 -1497 1458 1797 1417
10.0781 -2197 -1593 1392 718 -455 -273 256 -3213
10.0723 -1795 -1811 1554 -565 -3132 -234 -536 -1081
10.0664 -2168 -1365 442 -656 1140 1986 -514 -2371
10.0605 -1473 100 1116 -282 -76 328 1814 1065
10.0547 -549 -899 -56 -915 -1480 1540 283 -1623
10.0488 609 -1583 -1462 -2435 -1781 -740 361 -161
10.0430 407 49 -696 1730 -1674 -1531 3037 327
10.0371 308 3916 -1640 2388 -74 -313 -1496 -113
10.0312 1090 -44 -733 570 1866 56 -650 -611
10.0254 557 -906 2074 -860 1586 -288 1080 -1738
10.0195 -336 -1505 -1192 -85 -1777 2923 2500 1340
10.0137 1 -891 -2583 1205 -1783 -98 -921 -21
10.0078 2490 -144 -306 1353 -797 -2925 -1168 -391
10.0020 -1189 1460 1770 -1533 47 299 -644 -980
9.9961 635 -620 2696 -62 -3 268 313 -655
9.9902 854 1208 314 593 -2084 -665 115 -505
9.9844 1611 538 -53 -1022 -599 -409 2455 -1814
9.9785 1373 -579 2405 1374 -1298 502 -2117 1040
9.9727 -220 -1590 -88 855 3633 1253 549 -113
9.9668 -3366 -2226 -3541 -1829 1464 1894 403 -621
9.9609 1029 3486 221 2067 2012 -1245 184 -1251
9.9551 480 -663 -1406 1024 -112 -378 1281 655
9.9492 1840 2730 -1877 695 -2657 1331 2878 -1452
9.9434 1801 1007 566 -3304 -1586 -583 87 173
9.9375 1200 184 -282 -1495 -1152 -310 3330 -563
9.9316 -129 1473 1188 926 131 2415 -876 2110
9.9258 2319 391 -807 -944 396 -2972 1919 -1289
9.9199 -1845 744 100 -1303 1962 -1764 -867 -2378
9.9141 2608 870 -2158 753 -919 -1278 -264 -2951
9.9082 283 -9 2232 -1320 -2097 -1437 -884 1247
9.9023 3336 871 638 -1692 -2125 -1817 981 1687
9.8965 -333 -1955 1144 -167 -1119 -2354 -2755 2258
9.8906 -718 444 720 1317 3321 -272 1789 -1305
9.8848 -2151 -44 -2947 -2291 -1170 934 -352 -2685
9.8789 -58 -882 -792 -883 -173 1140 757 43
9.8730 -1261 -2358 2846 2262 -2560 559 593 159
9.8672 268 -620 2138 513 1496 423 295 -677
9.8613 1812 -2751 2047 -322 384 -796 -2736 -1374
9.8555 612 -688 719 -1330 -2672 -209 -654 -1160
9.8496 2143 -2727 173 -447 1957 188 521 376
9.8438 324 -338 -248 1257 3314 -1494 359 -1623
9.8379 2865 2599 358 2120 320 -1762 2670 -2337
9.8320 -1571 1761 1322 892 -564 -1061 -1770 1812
9.8262 823 3293 676 826 -816 -714 759 -1194
9.8203 1557 1601 -1883 925 379 321 -506 1734
9.8145 324 974 577 -957 -1739 2493 2582 -33
9.8086 1622 1974 2269 1449 -171 1043 -742 373
9.8027 -1393 -2420 -1344 -2319 634 1017 698 -1137
9.7969 -36 -1940 629 857 2867 -1498 -221 -152
9.7910 3518 373 700 -2213 -196 3279 2055 1016
9.7852 -546 -1335 375 -897 3392 -819 -712 1139
9.7793 384 -1320 -1953 -1214 2367 -847 -226 1384
9.7734 2416 1232 599 -882 -1361 243 -74 359
9.7676 -3046 -2062 1198 2212 269 -1838 911 -1284
9.7617 -407 -388 1147 1636 933 -1423 1602 -709
9.7559 -2217 1406 2836 -1542 -561 -879 -691 1788
9.7500 1233 286 271 -1108 -761 -1024 905 1006
9.7441 -523 1093 -1248 3122 -1568 -796 -109 1238
9.7383 414 -1288 881 1198 -1652 -3161 875 -1520
9.7324 1534 2728 1925 489 1291 -232 -1267 -183
9.7266 -620 366 -1724 -1570 150 159 77 1403
9.7207 -2171 948 -383 -48 1615 195 1338 2378
9.7148 -67 -2708 -763 -688 325 -1196 216 365
9.7090 -2884 2377 -885 -2017 -1170 1101 4680 -2984
9.7031 -1001 1730 -1007 84 -645 -45 438 -1463
9.6973 -1477 -2153 334 3632 1725 -141 1928 941
9.6914 -456 -947 215 -1201 -39 634 -1848 -1713
9.6855 -438 -1203 -145 479 520 1028 114 427
9.6797 -170 127 -110 -1 -497 460 1219 1974
9.6738 2347 1153 -908 -1945 -2356 -460 285 1507
9.6680 138 17 -1793 1052 2802 -616 3166 1104
9.6621 -1230 947 356 555 -1796 561 1330 -1776
9.6562 723 1888 488 -1020 -304 1119 835 -146
9.6504 -956 -1050 -277 -1745 578 2919 -307 -72
9.6445 180 896 -390 806 -1256 -1625 -881 751
9.6387 -960 -1093 339 -2977 -673 -3485 -928 2779
9.6328 -2458 1657 -912 -828 -558 2908 -858 92
9.6270 -725 -399 1081 438 162 -1012 283 -324
9.6211 -71 120 -787 -1917 593 -2694 1320 -861
9.6152 -1374 1529 -979 88 -1363 616 473 -395
9.6094 -340 -2322 1669 -1000 -212 -738 345 -348
9.6035 -570 -460 300 2271 -1700 1527 127 663
9.5977 -1018 1463 1106 -2800 -2590 2484 -882 -369
9.5918 -2263 -51 63 -753 1888 -328 1231 39
9.5859 249 -435 -855 2094 1664 1715 -1003 -631
9.5801 217 -541 891 2393 -839 -626 -2274 1822
9.5742 256 486 -1012 11 -461 -1023 772 1923
9.5684 1833 -474 4537 -976 21 -1959 -421 439
9.5625 -927 -165 -1459 -652 -1840 -685 -3196 -1265
9.5566 -707 -248 1847 -1638 -1094 1202 -1382 -569
9.5508 -2569 -4651 3174 1084 2988 -186 -2155 506
9.5449 -1418 303 560 837 -1208 175 537 1987
9.5391 -577 2778 917 567 -925 478 909 -1491
9.5332 940 384 -408 -1222 -314 985 2523 200
9.5273 -512 1000 1407 1095 -255 -3628 257 -114
9.5215 -1728 45 -1506 -481 1811 -884 -3541 1510
9.5156 -189 -20 -2712 -2783 -571 -821 215 -343
9.5098 464 -661 511 -789 694 910 -2302 -56
9.5039 -573 -44 2711 -934 -277 310 -3245 2080
9.4980 876 -259 1345 3894 -1222 1968 2532 -1210
9.4922 693 -1946 391 -1026 857 -587 1840 1800
9.4863 2530 -135 -462 -451 -925 -165 -1490 -389
9.4805 1198 1453 614 -2296 2243 2718 1289 -585
9.4746 968 -134 -2330 1689 1290 774 1034 65
9.4688 -1757 2237 -472 -473 731 -2423 -322 869
9.4629 -334 -3518 259 1319 -1939 3407 277 93
9.4570 695 1523 403 -86 542 -1750 2985 -2460
9.4512 -227 -1114 197 -122 1547 -116 -388 3086
9.4453 -1480 16 -531 1473 22 1814 -1080 461
9.4395 861 33 460 -2311 758 -392 2809 -1396
9.4336 -2193 3019 2888 -293 -2844 -1062 454 662
9.4277 1488 1772 957 -243 2040 2369 566 -541
9.4219 1187 254 -25 183 1743 2257 1527 647
9.4160 -495 -2321 -292 750 -1266 637 -1181 403
9.4102 -4012 632 1085 56 1031 -1433 130 -594
9.4043 108 -5 256 -1096 -645 -2633 -362 -3716
9.3984 506 2892 -704 -642 131 642 1101 -771
9.3926 -436 629 628 -1806 752 2567 -2592 -602
9.3867 -435 -1532 -1964 2491 293 632 1446 -1774
9.3809 1843 -925 1596 -6 2050 864 -14 1499
9.3750 -902 983 -2015 -210 2868 1366 -1411 2008
9.3691 -430 623 -511 943 -742 2103 -423 -880
9.3633 -574 -1994 1037 1686 2068 774 -196 1994
9.3574 2173 -895 -1819 -696 25 1689 1649 590
9.3516 1741 -351 -118 -3236 -723 -317 1788 -110
9.3457 -484 238 -485 -2865 -939 -191 -262 -935
9.3398 -634 910 -2141 -364 -840 -322 103 1054
9.3340 -3855 -251 -1660 -2464 285 182 -1040 -298
9.3281 -1204 2113 2563 1714 -1717 1053 520 143
9.3223 -192 -368 -845 -980 -1161 3561 840 -972
9.3164 -939 831 2712 2544 -1385 -1928 -910 473
9.3105 -766 -824 3095 -1868 1024 -207 -852 2866
9.3047 -1871 419 -231 -1004 -608 147 3872 761
9.2988 -364 -2059 353 1207 4196 -2317 -2125 -2654
9.2930 -2280 1778 -145 -1050 224 -118 -200 1740
9.2871 1295 -529 1859 1527 -364 -663 -554 -1378
9.2812 -3136 1698 2043 -3586 -438 -1415 -580 594
9.2754 1637 746 1067 1674 420 1726 1348 -1002
9.2695 1132 -578 1560 1764 -2038 904 -1412 -760
9.2637 -686 798 1012 -53 -3073 768 1731 -3907
9.2578 -875 -858 376 -407 1531 -578 -1316 -2892
9.2520 -2760 -328 948 -1518 963 -599 1301 1966
9.2461 696 -1380 1563 302 91 575 1036 1757
9.2402 -1945 1842 386 2008 -139 1220 1456 1999
9.2344 -441 2194 -717 -1765 -1189 -1932 2116 1485
9.2285 -2735 -316 398 333 -776 -1022 1279 -119
9.2227 -1312 418 -966 -373 1165 -294 3802 -2103
9.2168 -1454 2353 323 -243 1454 -268 -1434 2297
9.2109 177 308 279 -54 -1259 -1482 -2461 1349
9.2051 136 -303 -2186 -2004 -592 498 -243 -121
9.1992 -1313 1180 439 1945 797 -1496 -936 -254
9.1934 1695 91 -6 2122 1331 975 -2611 -267
9.1875 2983 1013 1909 2767 1196 -2919 559 -280
9.1816 -1297 1537 -1075 1926 696 -735 -1251 2770
9.1758 -298 544 -22 -1248 -478 -275 -2524 -1092
9.1699 -1340 489 227 -1816 -916 147 -1218 -2542
9.1641 1291 5 -494 -695 510 -624 65 1660
9.1582 2111 2488 -1488 -59 -1910 -1593 -2079 -592
9.1523 -669 -1458 -144 765 -761 -1246 1153 -345
9.1465 331 -1581 840 1237 -1559 -1612 -616 881
9.1406 1121 1674 -1375 -2918 -1340 89 644 -2030
9.1348 -83 -539 669 -1342 -278 -512 373 2
9.1289 573 293 1220 -1447 5105 2078 -2058 960
9.1230 -734 -1197 1797 -3483 -1182 756 -2504 1324
9.1172 -693 -8 2205 144 1530 2057 -835 -604
9.1113 2034 930 2258 3568 -1329 -113 697 -1960
9.1055 -1435 -2221 -428 135 2493 3894 -233 -229
9.0996 428 573 -87 2187 1756 -860 -3389 22
9.0938 2187 2356 -685 -859 105 -923 -1394 -908
9.0879 2759 2208 482 1351 -775 -900 1052 713
9.0820 -1944 1905 -3255 -945 1803 2161 4275 -380
9.0762 -209 660 144 -1608 -432 -523 1469 -335
9.0703 184 -38 -458 1628 -698 756 1879 -232
9.0645 1676 -701 487 -2093 1508 1771 -34 -2382
9.0586 -471 28 1907 -3456 407 182 -2230 1019
9.0527 -2630 869 1475 -1379 -1604 -1438 -696 735
9.0469 986 -619 841 -1606 -174 -2633 2129 -1918
9.0410 -1331 2516 1466 -1574 1387 4129 449 -1407
9.0352 -899 2606 -779 -1224 3798 -2513 -1227 -2550
9.0293 -1049 -728 702 -2220 1020 -942 2145 -867
9.0234 11 -2883 -2754 800 3094 -2523 -432 -311
9.0176 56 996 931 1133 -3865 -2373 3279 1865
9.0117 -2578 -782 662 -1235 -722 -2367 -1624 3003
9.0059 167 -149 909 -1173 505 -136 992 -1497
9.0000 -287 1724 804 -1368 -2993 858 573 -889
8.9941 -1513 -107 362 942 695 589 -1008 544
8.9883 -101 -652 249 3828 -862 -408 122 -248
8.9824 -277 773 -1428 891 1520 -881 3049 -2234
8.9766 685 199 467 -1161 -2129 502 -2702 1332
8.9707 1157 198 1079 443 363 -30 -1011 -284
8.9648 -47 -894 -69 -1814 596 -139 -3258 -483
8.9590 -1565 -205 2503 -1301 305 -1500 -571 1081
8.9531 598 -97 1406 1596 3104 -2787 -2306 -1879
8.9473 -1182 1367 112 -921 -463 -1505 1353 399
8.9414 -151 -2684 -957 -2204 -883 945 -1293 961
8.9355 -1436 2776 -261 -817 1151 1270 -1503 -1749
8.9297 -1765 873 -986 -767 473 -1295 572 620
8.9238 -1013 -1364 1729 -2539 286 2599 -790 -1757
8.9180 918 -23 -1348 745 -255 2065 1060 -1349
8.9121 1026 573 -315 -1632 1102 327 -1297 -247
8.9062 404 1417 2406 2013 -730 1524 -1622 -213
8.9004 769 -408 -871 35 2177 876 -1244 2128
8.8945 -408 33 308 172 -1357 -696 -326 1228
8.8887 -2730 1250 2176 -1759 -17 -757 -1928 2013
8.8828 701 2312 2140 1743 -58 1160 711 -157
8.8770 1016 -736 -153 826 1372 521 -1219 448
8.8711 3160 140 1163 -1764 563 649 -915 88
8.8652 -205 1038 275 -2210 967 3523 -2114 -1615
8.8594 -794 -1471 -1553 302 3263 1493 -281 423
8.8535 1175 900 -384 -1721 -1586 2854 1081 497
8.8477 1261 -1122 -596 135 -1984 -1383 391 -623
8.8418 -2486 -1194 520 -414 2010 2575 -1161 1065
8.8359 -109 -1045 1166 1534 -2594 -2359 1740 1289
8.8301 1412 1401 -964 -1220 -1220 957 1290 -2620
8.8242 -2359 752 -1485 637 -1472 -1428 -1647 457
8.8184 874 -1027 -575 -590 446 -60 175 -886
8.8125 -75 -117 -200 388 -1836 986 1887 208
8.8066 -2481 1766 -278 220 192 3057 -1485 133
8.8008 -481 1143 1246 1491 531 641 675 878
8.7949 788 -613 3606 706 -3963 260 399 -1641
8.7891 -40 23 -968 536 -2147 2047 -2626 -2434
8.7832 348 -2917 1400 1140 1147 -2332 671 -1437
8.7773 1256 1324 -2315 -1047 -2151 2373 1785 -1741
8.7715 -150 -4535 1173 758 -1465 564 -718 -1441
8.7656 -253 254 1661 518 -476 979 599 77
8.7598 733 1543 200 1657 -30 -591 -1743 -1818
8.7539 3971 -2708 176 416 -1115 -1509 1678 -1124
8.7480 101 -198 -978 189 245 531 1413 -498
8.7422 757 -2473 457 -1187 188 -1639 2082 -903
8.7363 2979 -2222 -878 1104 2841 54 -662 -603
8.7305 -2577 -2495 4116 -2071 -589 977 838 20
8.7246 -93 2108 3455 139 -1765 -2374 -390 1788
8.7188 624 -369 757 405 277 903 863 174
8.7129 -1224 489 -1670 586 -519 -1900 3555 -655
8.7070 1470 -1080 73 1648 -1797 98 2081 -824
8.7012 793 -332 -748 -904 141 19 -655 698
8.6953 -203 394 1116 212 -264 -1698 -582 -3284
8.6895 -1993 12 438 1330 -22 -2632 610 780
8.6836 -1586 393 -2264 -1978 17 674 1108 686
8.6777 -520 562 700 -1232 8 1229 1576 -1409
8.6719 286 -717 764 1335 -789 186 203 580
8.6660 782 386 52 1274 -4423 -3289 -1531 -760
8.6602 -540 475 -882 -1391 -809 -1262 320 1318
8.6543 699 965 950 -289 -2792 -1973 -1079 765
8.6484 628 504 1526 -734 -198 401 -200 -776
8.6426 -2512 20 966 -2806 -37 877 967 895
8.6367 -537 836 1127 1079 -700 388 280 -582
8.6309 -1130 958 -1634 1292 -2024 -204 -71 -656
8.6250 1788 -390 31 -997 -2538 440 -786 1749
8.6191 1284 -1318 -2296 -346 1031 -548 2437 -392
8.6133 -715 574 -89 1535 -410 -1466 588 209
8.6074 571 -224 2726 -1902 -1686 -1409 1733 -2266
8.6016 -576 -2442 990 -519 -2113 1349 -612 -1385
8.5957 466 -4 326 788 -1877 3008 2577 -135
8.5898 -3030 1656 -919 1622 -280 -1358 -881 -3219
8.5840 -1524 2095 2955 1423 -1378 285 642 -167
8.5781 -3712 -358 -838 820 -2138 585 -305 3592
8.5723 2271 -1327 -1548 -268 123 1395 -1312 292
8.5664 -223 -24 884 -2370 161 -663 -148 1062
8.5605 -3528 -1522 -1781 2223 2175 546 -1069 906
8.5547 -1521 -2458 1410 -620 -1655 -91 1813 633
8.5488 -153 -3362 452 1867 287 -958 -278 1538
8.5430 -1232 -2633 -534 1977 3590 -878 711 -1374
8.5371 -525 -1633 -1406 -126 2501 -115 -360 -98
8.5312 -1318 2672 2629 1687 -588 233 -2617 488
8.5254 1671 545 -592 -1487 -561 1977 -722 -203
8.5195 2303 -1836 -3290 -711 -286 -259 2081 -792
8.5137 187 261 22 -1465 1509 1658 -2634 -947
8.5078 -1311 -979 -2181 4109 525 -160 2538 -132
8.5020 -31 2629 -1240 -1702 885 -915 795 -1769
8.4961 -2889 2792 1781 919 301 -446 1173 -1412
8.4902 -1219 -421 98 -826 -1426 138 -971 -297
8.4844 -240 -62 -1407 -1415 813 1033 -2653 1028
8.4785 2011 -101 315 -1405 2994 -2062 2084 -84
8.4727 909 531 354 2033 -915 1313 69 -667
8.4668 1081 205 -671 -879 1661 -800 -1704 -539
8.4609 1984 810 -2016 -1215 -1576 2723 -2276 1190
8.4551 1985 23 856 -397 281 8 -1855 2091
8.4492 440 2163 357 -1060 1557 -1249 -1259 748
8.4434 1359 2508 425 -929 798 304 -1105 888
8.4375 2357 -982 1556 2770 3689 -920 -2155 8
8.4316 801 -520 1242 -14 -651 911 -680 -2330
8.4258 145 1047 2723 -85 -319 2732 -456 -1519
8.4199 2290 -886 -613 3252 -1664 2029 -1536 101
8.4141 541 1725 -1279 -237 210 1864 -1662 876
8.4082 254 -3449 -2023 -156 842 571 -1452 1200
8.4023 450 1783 -62 -2375 1239 -1620 37 -2140
8.3965 1690 1315 -542 -1121 411 -1373 1898 -2418
8.3906 -2351 1269 27 980 394 -496 -1014 -2240
8.3848 -1147 61 1474 320 -1361 978 354 1185
8.3789 98 834 -1579 2618 1311 -1335 -908 -1843
8.3730 -1426 -805 -663 -1284 -411 999 -1947 1533
8.3672 2535 624 696 -2156 -432 -679 -493 677
8.3613 -1628 -1 -3465 2557 -2601 1510 -421 934
8.3555 -1140 999 -645 -36 -2541 -2975 2092 1789
8.3496 -527 506 532 -3907 -404 -2659 1559 -2299
8.3438 -1681 363 2195 1242 3104 -2063 1582 -530
8.3379 55 -1470 575 -781 926 379 -172 930
8.3320 -2468 46 -3277 -571 126 183 -812 2166
8.3262 138 309 -779 3110 -195 902 -529 1713
8.3203 624 -2133 1095 -1217 243 964 1945 665
8.3145 -655 1250 -329 308 -689 543 1816 2634
8.3086 978 2099 -1333 341 1782 -325 933 -491
8.3027 -1068 -296 176 -509 236 3628 -1629 -360
8.2969 -2078 3559 1727 -290 -792 67 -854 445
8.2910 -1351 -537 1579 -1591 767 -2187 78 1732
8.2852 -867 1381 2625 1419 3512 -755 279 420
8.2793 -2894 513 -1657 -1364 392 112 1575 -673
8.2734 -1621 439 -1376 665 984 752 95 710
8.2676 -1997 957 2096 -1393 377 -1223 -551 -595
8.2617 -493 1203 -3735 -2270 975 227 -2340 538
8.2559 580 -891 3510 81 1221 1023 -5 831
8.2500 -543 -1685 -964 982 2508 -1659 2728 937
8.2441 568 934 -2070 267 -686 -199 2526 -309
8.2383 -3055 -2620 2009 -21 -1961 856 -14 -369
8.2324 -530 -1621 -641 -462 1800 522 -859 2588
8.2266 1927 -366 1027 -540 -778 1107 -254 302
8.2207 -1570 784 1433 -235 -67 3857 28 -547
8.2148 -68 1254 191 -1230 2090 -1083 1954 -2153
8.2090 -850 -1626 851 -530 -1636 -787 -420 1870
8.2031 339 2175 1470 1900 -2583 -2791 -1572 -1745
8.1973 -2042 -1598 -1928 -3360 1919 -1683 576 195
8.1914 695 -3140 1102 2659 1588 57 92 3263
8.1855 1113 952 1136 -1684 1124 -1438 1100 740
8.1797 -1129 -1236 1935 -45 -1850 840 -973 977
8.1738 -398 1466 1404 -350 849 -1277 -3047 1485
8.1680 -480 -1244 2109 2582 -995 2386 1096 -950
8.1621 -390 475 18 -789 -241 -314 1545 1902
8.1562 -31 439 782 808 1036 -98 558 844
8.1504 -893 939 -1378 -916 -2172 -1087 -257 -264
8.1445 1404 1715 -1025 -76 1646 -1207 -1772 -266
8.1387 2039 -1196 -245 -2282 -1557 -599 -2845 -1551
8.1328 -644 -274 -798 2492 89 1024 1089 2272
8.1270 75 -3142 -1875 -2075 264 2146 -2281 185
8.1211 729 -472 2073 -438 1220 1099 -1774 -3303
8.1152 740 -2000 159 -1117 752 -544 -428 -347
8.1094 412 -486 1148 -2010 -1253 -150 -856 -1662
8.1035 -834 -988 1072 1422 -276 -869 337 -2041
8.0977 578 12 -3271 -827 2883 904 -1100 -1475
8.0918 -1869 498 291 -30 -369 493 872 379
8.0859 -1752 -868 785 2106 1637 -587 -1700 2431
8.0801 1486 -918 2402 1817 -896 -224 592 -340
8.0742 -986 3080 -1407 -1334 -1901 -448 -1400 -776
8.0684 81 -1602 420 -1795 -1070 -670 -340 2852
8.0625 2106 -3935 2969 651 -351 -1692 2619 -955
8.0566 -284 -2356 -1865 -3228 -1406 -743 82 1881
8.0508 2027 1005 -43 2282 165 -1345 1288 -720
8.0449 2725 2954 -677 1382 1742 980 1594 -238
8.0391 -1524 1217 284 -2049 47 -790 2898 -4093
8.0332 2152 254 1539 547 -1561 2297 -1240 2409
8.0273 -1203 -3611 -306 -2059 235 990 -1974 1671
8.0215 -301 -1161 1191 1911 226 -2030 1895 903
8.0156 -1686 -798 82 1777 -1779 595 3039 2607
8.0098 -1063 2132 -755 757 1367 943 1960 1664
8.0039 1154 -46 -1256 -101 2041 267 -605 -1330
7.9980 -1596 754 -1605 553 -88 2468 464 -1903
7.9922 711 330 -550 514 -307 2930 1168 767
7.9863 -1738 1425 2307 -945 -1309 -1681 -932 699
7.9805 -656 -1307 2258 234 -556 -123 -575 419
7.9746 461 -3259 1619 -449 -1249 881 1216 210
7.9688 298 -1695 -2252 1289 449 883 -860 874
7.9629 3384 -1549 -1466 -444 2615 3418 -620 2095
7.9570 -311 -179 -1224 -169 -3505 290 -144 -2586
7.9512 37 -1461 -499 -1657 1048 -2392 -1084 620
7.9453 1032 -926 -601 956 2694 -976 737 501
7.9395 -794 1856 1717 11 -1395 1259 193 1839
7.9336 -3167 -1020 -1270 752 205 -33 1213 -1528
7.9277 -1194 -484 861 -2977 1481 -1508 333 1594
7.9219 881 1757 -208 -1226 1361 -1020 236 -1806
7.9160 2229 -1984 -693 -839 2689 1285 -983 1966
7.9102 -797 -657 150 -864 242 -444 -1851 2376
7.9043 -925 -848 1595 438 2490 -243 906 1724
7.8984 838 -2096 -2388 42 -290 843 -894 -1586
7.8926 -350 -2741 96 -1570 220 4159 -2285 2687
7.8867 -1404 1916 -1489 1695 -1174 -1932 1897 538
7.8809 1619 -836 -487 464 120 20 330 670
7.8750 -1237 1305 -1288 960 -1396 -1104 -221 1717
7.8691 929 2023 2187 -81 3134 1674 586 928
7.8633 -659 2878 415 -247 -115 -81 -60 -204
7.8574 1402 -829 543 1382 828 1122 -509 -465
7.8516 805 -1902 -816 1352 -137 -868 -1666 11
7.8457 479 -401 464 2006 743 897 217 2985
7.8398 -1151 1419 -875 -413 692 159 -2504 1601
7.8340 700 -1625 87 529 1320 2347 -791 -1349
7.8281 -1130 -264 39 -3186 458 -1790 -286 1082
7.8223 -1265 -355 -2287 -829 -1587 1000 -2650 -1889
7.8164 344 -1803 1705 330 216 681 -1948 805
7.8105 1617 -705 -2365 -779 -2117 757 914 2380
7.8047 -1211 -1713 -2403 -1852 2767 155 -708 -1264
7.7988 627 -1650 -265 1942 240 -1883 -1377 460
7.7930 -373 336 1328 546 -212 -1622 -383 104
7.7871 991 -132 -1412 3017 -1054 3389 -99 -1101
7.7812 -235 -810 1565 -1251 -1198 -2765 -476 534
7.7754 -555 -1439 -2427 1298 183 951 -1697 -1152
7.7695 -655 172 -2421 1782 51 -949 -805 -1744
7.7637 1346 -480 -1515 -1023 790 -1824 147 1506
7.7578 -864 -743 2031 3277 250 -982 -500 813
7.7520 1274 4 2167 1923 -125 -176 -169 850
7.7461 -1771 -953 -703 -197 -526 -808 -1868 -1848
7.7402 -386 -1968 1015 2000 1401 3520 597 -427
7.7344 -2847 -1606 20 141 -1511 -1779 948 -856
7.7285 -1447 -338 -296 772 1539 -1359 932 1442
7.7227 -460 479 -680 307 1420 3347 1795 -2075
7.7168 -22 -1226 -1415 1858 -1346 -2493 75 -1831
7.7109 -1696 -2153 -1025 528 -3169 -662 -716 -768
7.7051 -1339 -2280 -1348 -2211 2433 852 2833 -997
7.6992 -109 -460 -227 -403 450 18 -1748 2369
7.6934 502 868 1091 2577 -234 -311 -1534 -1299
7.6875 -2091 -2159 -711 -1540 -1263 -1301 299 4042
7.6816 86 759 -382 877 1538 -971 -1017 962
7.6758 1230 -645 -1527 692 -102 -840 2213 920
7.6699 -879 1759 897 215 974 2702 -1253 -1025
7.6641 125 568 -628 -547 -1850 622 101 6
7.6582 2049 650 2148 1097 -2535 1872 657 -2160
7.6523 637 -1183 1243 945 -774 1903 1278 3993
7.6465 2372 -47 -1170 -1542 -376 1228 -835 26
7.6406 1669 2937 -1954 -837 -659 -1760 -2395 1102
7.6348 710 -109 -1689 795 -1606 -115 -94 -2161
7.6289 737 -1777 1575 4042 -716 -2823 -1428 3391
7.6230 615 571 1873 667 -1901 2575 2570 2025
7.6172 1311 541 -2512 1128 -691 266 -658 -80
7.6113 -2830 -1862 1450 842 -569 33 -2176 2923
7.6055 1032 1780 -2104 78 953 -1484 379 -3353
7.5996 86 -1614 741 2610 261 574 30 318
7.5938 -1456 659 -438 -816 1019 -781 2476 1494
7.5879 -2086 -346 513 876 437 1607 32 2665
7.5820 1172 1653 1316 -435 359 -3367 462 -2387
7.5762 336 2190 1089 459 -617 -1335 478 96
7.5703 -714 -1786 607 -1442 -250 -3370 953 1226
7.5645 1632 -1911 -2537 -1011 1991 -177 -232 1835
7.5586 -204 1309 -435 9 1454 585 1433 1270
7.5527 -266 2432 4098 1557 -635 1281 561 -3967
7.5469 -2430 260 1505 738 -2659 635 -1262 941
7.5410 -1627 594 1664 989 -622 799 -191 -172
7.5352 2830 3529 -1504 2271 3026 -410 305 -521
7.5293 796 -766 404 110 -619 -1298 -9 1488
7.5234 1 -487 91 -1059 -3145 1781 2946 102
7.5176 850 -1122 -1743 -1593 339 2490 1148 2126
7.5117 3764 -821 720 -653 -604 -645 -1943 1399
7.5059 1535 1917 -2617 746 -2266 -1536 2696 -748
7.5000 -8 -512 365 660 -784 -294 -459 1524
7.4941 756 1266 -398 3219 274 922 962 -90
7.4883 1440 -418 -1468 -970 1673 -875 1535 1047
7.4824 -783 1744 -3779 -837 -1027 45 -1120 61
7.4766 610 757 -255 -523 427 1464 -2668 1751
7.4707 35 2320 -1924 -1906 -1964 -2451 -253 409
7.4648 199 220 1414 -212 -1916 226 1325 1172
7.4590 -2239 3018 1873 2494 -907 -1866 879 -1361
7.4531 2097 -204 -33 681 1578 1465 25 -326
7.4473 2545 1204 497 396 -3153 -2034 -2581 -2204
7.4414 598 2686 -1124 -189 -1687 -809 1577 2205
7.4355 623 -80 3693 975 -484 -1056 2652 879
7.4297 794 -1036 -1165 -1656 2168 827 1229 2299
7.4238 257 1152 -434 -19 -1000 -513 517 -703
7.4180 1798 -897 1347 -1610 1203 1283 -350 1876
7.4121 -986 2589 461 297 2669 -624 -2059 -696
7.4062 2434 733 618 -2611 -428 4138 -2505 -2499
7.4004 -2456 -397 -934 -179 2134 -1096 -992 117
7.3945 -659 951 -1175 1966 3013 2377 1129 -173
7.3887 191 -1140 373 561 1911 823 4044 -2284
7.3828 1276 -486 1405 1116 1211 -2057 2862 -651
7.3770 525 4095 -942 4 3474 2936 215 2585
7.3711 1035 -290 407 -1749 1664 1237 1383 -2796
7.3652 2943 -164 1786 2135 -424 217 1423 1505
7.3594 2842 4557 3266 2475 1767 3570 4830 611
7.3535 1636 2410 2402 2732 -1 4020 1713 3012
7.3477 2985 3451 2440 1680 5121 2161 1448 3092
7.3418 4781 3754 3604 4250 5701 4195 2926 6274
7.3359 5535 3509 4666 3055 7586 7530 6489 3479
7.3301 7214 8542 5455 8964 8501 8374 10470 10671
7.3242 13134 10352 11536 13214 13053 16110 16675 18551
7.3184 17245 19529 22756 23111 23980 27007 26907 37136
7.3125 37682 42010 47538 55036 63659 75538 87366 102499
7.3066 123024 151695 189777 240153 311068 413806 551642 734099
7.3008 911529 1000000 934622 757193 576536 430286 320673 247033
7.2949 195494 156863 126739 106314 87796 76578 64385 56182
7.2891 46789 45845 39337 37446 30049 29974 28608 23804
7.2832 21280 18787 18522 15865 16717 14238 13774 12427
7.2773 12137 10572 10413 9593 8430 7526 6407 8212
7.2715 7975 9503 6487 6839 9833 5535 7448 5991
7.2656 4706 4250 4228 4016 4542 4591 1162 878
7.2598 2660 4520 3154 4206 2334 5294 2229 2057
7.2539 54 3716 4516 5537 2323 807 5121 1086
7.2480 3103 4187 -220 3622 3469 3169 4374 2598
7.2422 2266 3682 919 -903 503 2302 4416 -208
7.2363 -1044 3346 2488 822 1557 1185 880 1484
7.2305 -1145 178 590 -571 2082 1352 3255 473
7.2246 878 1134 -1693 170 1299 2828 -1170 826
7.2188 -1412 -611 3211 448 462 -816 -355 2913
7.2129 1085 1903 -982 -1846 1416 1853 1649 1222
7.2070 1268 476 748 -1903 609 2089 1918 2191
7.2012 681 1221 -291 447 2343 1287 5515 1956
7.1953 -1297 -132 -987 768 -74 132 -197 -2360
7.1895 -1972 445 549 -1719 355 2941 -109 3111
7.1836 -58 2170 -1617 391 861 788 1493 -318
7.1777 2557 192 -958 1818 -1176 -5028 2547 -1948
7.1719 2861 368 -699 341 1158 -467 -1527 1474
7.1660 690 995 33 -1244 -59 -2170 1708 168
7.1602 1272 1207 1192 121 181 -1329 1171 -2548
7.1543 -1638 313 -8 899 1196 932 451 3972
7.1484 3027 1059 4321 1921 -248 -914 -1501 -1449
7.1426 659 -489 2455 -923 748 -34 2641 -782
7.1367 1380 2522 -182 -1324 -275 -837 1034 1518
7.1309 797 -550 330 1887 -2346 -2043 -730 -576
7.1250 -809 2218 3309 -1380 -895 -350 758 -620
7.1191 1165 -547 403 454 -1098 726 -415 -2743
7.1133 -2986 1717 1590 133 433 675 68 1523
7.1074 1448 99 2210 3196 -1579 -1118 780 -1402
7.1016 511 -1881 321 256 185 -116 363 -1274
7.0957 537 -83 3274 1154 928 2585 830 1976
7.0898 729 1893 -127 -1786 978 -860 -1888 -454
7.0840 2085 -901 1827 379 1444 238 1289 -682
7.0781 -2760 1922 -80 -566 2314 -58 2137 -1830
7.0723 1025 83 398 250 85 116 144 -692
7.0664 440 -1121 -415 193 150 163 -229 -124
7.0605 1216 1103 1895 -282 -1011 -532 425 118
7.0547 -4087 -718 -690 -815 -2385 2962 841 3243
7.0488 -2067 1136 -379 90 1973 2079 -1434 -1425
7.0430 2802 -1038 -2783 2289 -1934 158 1466 1972
7.0371 89 619 -477 -28 3876 -1502 95 -790
7.0312 -1363 199 2027 -1565 -787 2917 681 1207
7.0254 1185 286 47 -519 -690 2713 2953 2134
7.0195 545 2582 -978 1332 -756 1769 -1435 605
7.0137 -646 -42 -864 -597 -1355 393 1181 851
7.0078 -80 -82 1618 3046 -263 227 -191 -2197
7.0020 -278 -177 420 68 -872 -1279 1075 -1477
6.9961 -2202 766 2202 1195 1411 -771 -1522 144
6.9902 -1572 1393 -2110 -960 -376 -476 251 -1813
6.9844 2037 2964 600 2477 -1280 2075 -390 -475
6.9785 -1724 -1165 -3456 218 2204 578 1489 1065
6.9727 1702 2547 -735 1123 847 1901 529 2101
6.9668 -641 -121 479 690 2256 684 -2044 -221
6.9609 -2383 -1342 -1435 -3196 -1023 -2150 -643 -205
6.9551 -1002 -355 -1713 1057 727 1207 927 -2798
6.9492 81 -866 -1954 2228 1401 -1696 2682 -1806
6.9434 926 -3269 -2645 1557 1155 1706 -1163 -1172
6.9375 -219 2183 -1896 -18 96 -1723 -2448 325
6.9316 1788 -1775 1348 -1921 1175 -82 631 742
6.9258 -172 -586 3110 1192 -425 -145 -1633 64
6.9199 1771 308 -463 2420 -2815 426 -746 2009
6.9141 2217 -2836 484 4776 3606 1692 -204 -1175
6.9082 234 -625 114 -770 -515 729 -156 -4048
6.9023 4127 3200 401 1078 -251 -286 -1479 2704
6.8965 -988 1035 -1765 -1469 108 -1646 -516 -1192
6.8906 91 -253 -750 -14 2844 395 71 2540
6.8848 2299 -207 -674 -5082 -2478 -2985 -2242 2295
6.8789 -4281 -638 379 1031 -967 2427 -395 -2639
6.8730 -80 1527 -1126 2599 735 2193 -813 244
6.8672 -899 943 159 1712 -510 -3979 1387 -310
6.8613 1576 -2773 -814 1417 -1004 -2042 -779 -1504
6.8555 -171 -456 -615 186 3347 -1635 568 914
6.8496 695 1118 -2757 2272 797 1907 2153 213
6.8438 -32 -1147 -537 -171 1261 -815 -3695 -1716
6.8379 993 266 -4023 720 308 1326 -1763 175
6.8320 -263 -1109 840 1322 2094 -2158 438 -964
6.8262 -1332 933 -292 -1423 1002 36 -397 595
6.8203 1676 424 836 2107 -869 2072 -993 -8
6.8145 1075 -3016 -1906 -300 -107 3734 179 224
6.8086 152 -2631 -851 -545 400 760 741 1374
6.8027 -38 -9 -2476 -1352 1395 -3129 100 -1017
6.7969 2183 1207 -3097 743 1689 3089 310 -22
6.7910 -2462 1515 -1700 -968 310 644 -2447 -1221
6.7852 -241 -945 -211 -4 1562 -3179 128 -1850
6.7793 583 1695 -1623 1234 -596 -3771 -1139 1236
6.7734 -498 103 -1119 2023 39 800 -837 692
6.7676 -422 1394 923 -778 -141 -829 -1966 -475
6.7617 -1509 240 -29 -208 -869 -874 1556 538
6.7559 -283 176 -193 1114 1445 1854 -1463 1168
6.7500 -709 -2391 158 -1408 -2050 177 -586 373
6.7441 825 470 3691 360 1616 935 -851 -388
6.7383 -1865 -307 812 -515 610 -57 105 89
6.7324 210 -1398 -199 -1956 727 865 -1735 3388
6.7266 1521 -1055 -1209 -1369 1528 -562 -2935 -1602
6.7207 306 425 916 -405 -3556 221 512 1451
6.7148 -982 1496 2158 -1988 195 989 -170 -171
6.7090 998 1473 -333 -1706 -74 783 1272 607
6.7031 518 1522 -958 642 -3341 -399 -266 293
6.6973 15 -964 -2098 1443 -372 2342 1060 2084
6.6914 -1303 1853 1981 -167 -1104 1163 -504 585
6.6855 996 360 -1056 -904 -1847 -674 1147 -477
6.6797 -1448 -560 1030 -1015 661 -621 594 1308
6.6738 -614 -1553 -1583 -1607 486 1250 1395 -2040
6.6680 -2873 1409 -1438 602 892 494 336 286
6.6621 109 -98 584 -3170 149 2055 -475 -875
6.6562 192 -300 176 -2081 -226 -751 -3871 1279
6.6504 -1273 2381 247 -469 -541 1596 1079 1677
6.6445 327 1224 -1649 -1020 -264 1200 -3487 -1160
6.6387 702 -551 -1974 -318 4581 -1307 -470 1444
6.6328 117 917 2164 4012 -1068 -284 186 849
6.6270 -156 -553 972 -2077 973 862 1542 116
6.6211 2934 -440 1926 720 1031 1121 796 -771
6.6152 -2088 405 644 4033 -1531 -218 -1860 488
6.6094 -406 2107 -2708 -209 659 -449 -1934 -387
6.6035 -1860 -205 195 365 1337 -1329 -3735 -3166
6.5977 -1417 2801 -1551 -1743 936 12 583 -1642
6.5918 1135 -133 473 1756 566 -1411 -574 -2875
6.5859 199 423 1729 411 957 902 1286 -1577
6.5801 427 -1307 797 3217 648 1045 1660 -1811
6.5742 -256 326 224 913 -616 -805 1516 129
6.5684 2207 -633 2185 -1861 -1726 -1285 9 -2728
6.5625 316 -410 -2955 2043 453 -1442 -322 943
6.5566 -2198 -1908 426 89 -1462 411 -2716 -785
6.5508 664 -2732 -2012 -1427 1987 -1124 1647 1967
6.5449 -773 -2499 -916 -966 -200 197 -3758 780
6.5391 2842 293 1054 -434 -2347 1619 -666 -530
6.5332 876 465 935 -1684 2105 -972 856 -1151
6.5273 -178 -1031 1704 1147 3168 -4058 -1941 2812
6.5215 1588 -3 -1870 1163 2445 1249 -1442 -1542
6.5156 1393 -1476 -396 893 1388 -314 -639 -1290
6.5098 1345 3890 -830 1719 3170 -1839 835 531
6.5039 -1859 633 446 1268 -2604 1059 -542 1717
6.4980 1730 832 927 964 -2471 2163 -398 -728
6.4922 -40 1138 -340 -1386 -1836 -1665 -555 1699
6.4863 784 -1131 861 -51 -2758 41 1473 312
6.4805 -558 -1492 552 -458 924 -1278 773 -1389
6.4746 -395 369 952 2095 225 947 -295 -2608
6.4688 288 1463 -470 -1313 -667 -470 -1818 -3084
6.4629 382 -1085 53 2690 387 -428 1007 -139
6.4570 -2337 989 857 -1005 1497 -553 830 490
6.4512 1076 -260 -1690 2231 -3423 -1679 351 -833
6.4453 -2463 762 36 -4148 1139 211 -230 668
6.4395 813 -601 -1033 257 2574 473 885 -1424
6.4336 -2040 650 -1328 613 619 -187 1624 -1499
6.4277 -553 434 1445 -2113 -902 1210 -3460 293
6.4219 -1725 -2181 655 800 -15 -242 2397 -63
6.4160 1497 -881 -1704 2571 880 557 -686 -1971
6.4102 -2607 -811 -33 2374 2162 1487 1520 -363
6.4043 1092 -1566 942 1385 189 1295 -2328 -815
6.3984 1308 1364 -1883 1470 2094 -4289 255 -322
6.3926 -87 -378 1366 -456 1617 450 -252 -1627
6.3867 -1872 -42 -2054 1425 -5 620 2450 -950
6.3809 -875 2014 2020 727 -450 949 -979 483
6.3750 -23 152 362 1494 -472 1461 -2002 164
6.3691 49 -267 -3239 1097 -2381 1205 294 1411
6.3633 -3382 1414 -1504 -2268 -1977 -668 1041 158
6.3574 -17 -1444 2285 596 1944 847 2865 1847
6.3516 95 655 970 1019 -190 1788 -217 -117
6.3457 108 -1205 1674 1501 -527 2821 1493 -892
6.3398 -1974 -460 744 2304 943 1707 3625 -204
6.3340 2602 1225 -625 3113 918 -426 -1928 1718
6.3281 -2111 2292 -1215 1443 1727 1790 1202 1877
6.3223 827 18 588 1838 2410 786 1172 1240
6.3164 1233 851 -1797 1720 -630 -483 -1250 -67
6.3105 -2158 -1097 -1572 2722 -465 -1909 2204 1319
6.3047 -1929 -2687 908 2423 1501 -604 281 -44
6.2988 1003 -2449 2551 -1234 1686 1300 3369 462
6.2930 -2620 -860 -949 -667 2405 -1393 968 146
6.2871 1571 2981 1033 981 -1146 -1875 -723 1893
6.2812 107 478 168 1569 89 830 1690 58
6.2754 -3650 193 1892 2519 -2538 584 -671 -1873
6.2695 -1726 -1377 -2439 1422 2063 -1383 -1193 1232
6.2637 1354 62 1102 803 2825 825 766 -589
6.2578 -467 -1009 -149 -764 2013 -31 1895 486
6.2520 -658 1598 -1097 -2056 -336 1105 -298 1749
6.2461 -799 791 761 -1145 -696 1827 -1031 -534
6.2402 -503 -358 -3608 96 2517 -492 -1315 1367
6.2344 -1659 -853 -2852 -2016 -3398 504 -1141 2535
6.2285 -1051 -113 2848 -1749 -1141 1484 -913 -63
6.2227 1675 -1321 142 -1985 108 372 -631 -725
6.2168 -1297 344 721 -1088 474 988 -1506 856
6.2109 -767 -39 -229 -130 -3002 657 -785 -228
6.2051 1537 130 474 -1112 -1801 2653 -1972 808
6.1992 -1666 121 -2114 88 -621 -302 -887 1402
6.1934 -603 -1351 -439 353 1425 1656 944 123
6.1875 -2181 -2019 1359 -700 -299 -1344 -1482 -267
6.1816 1559 1379 -153 190 593 2461 1724 926
6.1758 -450 597 -678 -586 899 3478 -1635 -308
6.1699 -1483 155 771 96 510 977 -1522 3330
6.1641 947 -1240 1381 1642 -195 1402 348 1337
6.1582 1226 -66 -76 313 -1142 1333 136 -2025
6.1523 506 4468 -1753 -683 737 1570 -927 -295
6.1465 777 1788 -760 1612 -92 -2474 965 2720
6.1406 1370 -2716 356 2140 122 2390 -2953 -1434
6.1348 -1171 -1045 1070 -1616 -1600 1538 -470 -2488
6.1289 830 -429 -646 586 656 -353 -1840 -332
6.1230 -463 -770 70 555 -230 475 596 596
6.1172 1578 -2027 -1191 906 4329 -1946 676 -594
6.1113 658 1827 -157 1465 1663 459 607 -123
6.1055 163 -3117 690 -772 -46 -43 -7 -1100
6.0996 -202 -989 -1159 211 1334 2087 -240 1476
6.0938 2718 -163 -408 414 -1536 -429 760 9
6.0879 261 732 -1292 -1770 -664 -597 2152 116
6.0820 -322 325 -1234 -1398 1211 1750 -3694 471
6.0762 1505 -46 3606 2585 -1061 372 -714 -555
6.0703 1500 -641 2120 -346 1106 2908 -1453 694
6.0645 1972 1007 1624 2362 -885 402 -527 439
6.0586 -2411 1025 1759 -3592 91 -1967 -203 955
6.0527 2433 688 -8 1762 2389 1446 207 -800
6.0469 828 482 -1568 91 3053 810 1399 -1025
6.0410 272 873 504 2935 -1771 1511 -646 -1959
6.0352 -2149 1556 -548 -2920 1904 -1232 1114 402
6.0293 976 370 466 2052 142 391 -890 2358
6.0234 -1321 -1281 343 -50 -369 -749 1181 1795
6.0176 2849 864 70 996 1104 221 116 837
6.0117 1778 669 -364 162 2103 -1329 363 1924
6.0059 2271 -377 -657 3385 -843 919 2081 1660
6.0000 -1497 -226 -1883 -708 1352 -1619 1838 1546
5.9941 -671 3772 2606 763 741 2006 -1923 -2034
5.9883 2879 -623 2175 682 3351 -622 -880 270
5.9824 2453 -2778 392 731 1099 -107 816 810
5.9766 937 0 2990 1062 -144 -438 107 130
5.9707 -1815 -2970 239 51 186 389 1647 481
5.9648 1563 -506 -218 1711 1803 -2687 496 -1861
5.9590 -806 -691 134 -1542 2573 372 -348 -1570
5.9531 -241 -1477 565 755 598 1173 466 2266
5.9473 2013 1429 319 -184 1146 -637 -1316 -2307
5.9414 1428 1516 -1404 1985 537 -704 -1388 833
5.9355 694 1246 181 -1161 3796 -784 -850 1120
5.9297 -480 -759 -1064 -554 840 1642 -81 1123
5.9238 -683 -750 -1031 -2011 -1261 -1834 -361 850
5.9180 -87 101 2026 162 149 -4292 -1116 -3424
5.9121 3260 -200 -1825 -3969 1699 994 600 375
5.9062 606 1289 795 -700 -1057 1142 -1536 -471
5.9004 1493 -2287 1599 -936 2095 -1057 38 -1661
5.8945 -1324 -659 -1987 2489 1285 1016 1941 1733
5.8887 396 -1671 -938 249 650 -1299 -27 -1513
5.8828 -373 -39 -590 -93 -2397 -2312 1725 160
5.8770 -1084 2591 603 -700 -540 983 1231 253
5.8711 311 -132 2242 -139 -1979 689 -520 1219
5.8652 1853 1995 2484 -734 -1931 -730 889 -963
5.8594 -572 -729 438 -39 96 -262 -4181 -1482
5.8535 1435 1693 1861 -81 -1121 343 -353 610
5.8477 -1873 1033 -372 171 -2986 -2734 1322 -1326
5.8418 743 38 -3297 2800 -348 -1197 -1293 574
5.8359 -1494 585 1725 1025 -358 1197 2057 911
5.8301 1816 1359 -278 -1821 202 -2578 157 -938
5.8242 2265 -2893 -276 -36 1023 -3999 -1654 -747
5.8184 1396 907 315 1406 839 706 3862 -1729
5.8125 2002 3407 345 1121 1849 -913 -25 466
5.8066 -802 1523 -442 163 -1385 312 -550 827
5.8008 337 -793 2541 -1631 919 -1240 -200 2254
5.7949 -381 -665 383 2430 -804 137 -1673 -671
5.7891 -736 979 32 -889 -1814 1998 102 459
5.7832 -78 1352 496 1126 -1140 -917 679 2234
5.7773 -1435 1807 -1222 70 863 -771 -2043 757
5.7715 160 -1001 -1988 1808 -681 -255 -1948 1668
5.7656 90 553 2078 460 -1535 -1863 459 -2284
5.7598 2790 -444 -734 2422 -88 2191 -1229 -838
5.7539 2932 655 2730 -474 -70 417 182 -1083
5.7480 1746 -1685 -577 -1234 -4556 1361 24 -1468
5.7422 1552 1072 2132 -792 156 -2642 3093 -1304
5.7363 -252 97 -339 175 1288 -275 1035 2519
5.7305 157 -1691 -2176 313 -1486 -2116 -204 -888
5.7246 -1907 -1184 -1735 2397 -497 910 547 522
5.7188 -1956 -726 932 1132 1528 -2122 -1392 396
5.7129 -2013 -611 -1185 -2164 1467 -421 586 -195
5.7070 -1307 -502 1185 1269 -1185 727 1297 522
5.7012 139 469 -780 -968 -1503 -253 421 -136
5.6953 2906 878 275 -2935 -427 -1964 -1574 1368
5.6895 -935 1348 -1833 2025 2172 2109 213 -522
5.6836 330 119 3111 2216 -2655 1730 -957 -578
5.6777 -1081 -171 1646 -69 -225 94 349 -2603
5.6719 649 2206 855 -999 -69 2926 -2234 -3673
5.6660 -153 -561 -2673 -653 862 1342 1064 -84
5.6602 1464 102 1463 667 -448 -602 -1713 36
5.6543 758 -536 -2737 -1215 -104 1299 1917 -1230
5.6484 565 3799 -2921 -2068 -473 2270 -1532 1097
5.6426 -2726 595 -957 -345 2635 -2782 463 -871
5.6367 -959 2461 494 250 -76 1030 -1933 2190
5.6309 -2308 -3157 -520 148 -864 -560 -819 134
5.6250 421 -278 359 -957 1833 -2265 568 2124
5.6191 50 -793 413 -1608 972 -1734 -961 276
5.6133 -498 422 -1437 1849 -794 1506 -93 1668
5.6074 1040 -965 141 650 2086 -2521 1532 -2049
5.6016 46 -1538 -630 3319 415 1898 -229 1378
5.5957 2150 122 -1433 3097 -451 -1847 646 327
5.5898 -3066 1890 483 -81 1801 -2968 3168 1075
5.5840 -818 1413 1657 90 -549 -1695 -1560 -1978
5.5781 -2206 1535 -1309 -1869 2679 -115 2205 1576
5.5723 -2228 2013 908 1166 906 -1151 -1659 -1495
5.5664 -1858 -1147 -133 -1697 795 -430 -1556 -1643
5.5605 106 527 -1639 1810 -1845 -1139 1966 -435
5.5547 1463 541 -2593 533 -575 -3166 -160 916
5.5488 -2549 -2082 -2887 672 670 667 -30 -929
5.5430 1970 -2923 -360 -1767 -1337 -2205 559 -1420
5.5371 594 -124 -1133 1178 -1496 -459 2458 1889
5.5312 -74 -210 -444 -1823 -2398 1071 -416 296
5.5254 -928 -1267 1967 748 -3356 13 -2186 1049
5.5195 -295 -860 -590 -284 3105 -1670 1323 736
5.5137 895 -699 -1633 -1479 1199 -1089 -429 -871
5.5078 190 704 -2594 1379 -864 -938 766 -150
5.5020 -583 3087 225 -135 -183 -418 1880 -1196
5.4961 -666 -84 1887 -1482 -1270 367 -103 2020
5.4902 538 3481 -1608 -2488 1398 2398 741 -1000
5.4844 1759 3313 -2185 440 1892 -1146 1368 89
5.4785 2372 731 -665 1573 -1814 52 3246 1394
5.4727 802 -230 3261 1141 -1822 1898 64 1149
5.4668 -162 -1415 -2997 186 -1344 16 600 -1433
5.4609 -256 1498 -595 -232 319 1385 827 482
5.4551 -1746 129 -974 -1235 -1593 1888 137 1808
5.4492 1329 2626 -1907 422 424 -197 -270 -331
5.4434 189 779 -866 -497 -370 -738 -1931 1603
5.4375 -3465 1333 1295 -1143 -1852 -485 -1096 -5139
5.4316 323 -1126 727 -1639 1087 -3182 1784 -378
5.4258 690 889 305 1369 -1692 -1226 -1129 2066
5.4199 -656 -3755 -825 -103 -693 971 -3126 2252
5.4141 -1731 451 -1210 528 -1505 -2709 407 -1360
5.4082 977 -451 2371 746 2134 659 -711 -934
5.4023 1170 -807 -593 -315 -937 -370 600 -1408
5.3965 684 2842 279 615 24 2965 1168 -748
5.3906 -649 657 -959 172 -297 1106 -1971 436
5.3848 350 2537 730 -379 1752 -874 372 -2074
5.3789 -1978 660 50 -714 261 -2052 633 216
5.3730 349 1609 -336 -1559 198 493 -724 -417
5.3672 -1356 1715 -78 -1338 1278 -137 1226 -593
5.3613 1070 2779 4867 226 -454 223 1830 -2293
5.3555 -250 1199 1383 -1208 -239 1473 1016 4022
5.3496 -350 -2836 333 240 -412 971 -251 -1915
5.3438 2068 839 1307 -405 2014 1761 -2169 -1341
5.3379 837 -2956 -942 1032 26 -420 -2208 1014
5.3320 -549 3701 -49 34 -1443 -599 -991 2711
5.3262 -2377 1012 -828 -2175 3230 3206 526 153
5.3203 -2795 -301 698 -937 -1392 -1313 -3249 468
5.3145 1290 7 -22 530 -231 -1823 -1358 1721
5.3086 1942 810 -142 -93 -529 663 2974 514
5.3027 -2314 1152 1543 92 199 110 1225 -2484
5.2969 -1244 -115 582 972 -2029 633 1097 -2326
5.2910 -861 -16 438 -451 -121 532 1065 772
5.2852 4108 -615 -199 -158 696 -2814 387 780
5.2793 -3065 -937 1211 -824 1191 2109 675 1031
5.2734 -2553 -440 5 -2097 -186 1214 1712 -1823
5.2676 -47 127 287 -1159 382 -1466 -1444 949
5.2617 2511 821 1609 -113 714 283 -2715 562
5.2559 -1981 879 -1404 1735 1556 -1025 -1073 1864
5.2500 -1565 1186 784 247 -2453 -1415 3589 655
5.2441 187 -575 -1040 -1496 -1859 1648 -602 -4667
5.2383 425 218 -454 -62 -149 529 1582 -1787
5.2324 208 -571 -130 -158 -206 2043 1440 -3886
5.2266 -3185 -471 -963 1679 1999 291 -2059 1214
5.2207 614 -824 889 1519 2529 1546 46 283
5.2148 -961 -371 1267 -1008 -909 -1558 945 1425
5.2090 -1543 -615 -50 -1415 -494 834 -613 -333
5.2031 -939 -1781 239 -1415 -380 1292 60 2624
5.1973 843 538 -664 -1266 961 -1953 835 741
5.1914 -1622 313 877 -1469 -376 -426 1740 1358
5.1855 -713 -1377 176 -356 -1630 -80 861 -249
5.1797 1006 785 -1450 -3294 -1579 -2642 1353 -285
5.1738 -3061 -1767 1543 -2389 335 477 -1450 1586
5.1680 -3477 -669 -2593 554 119 -635 -2398 680
5.1621 1362 -572 -18 -1251 -1018 1951 -33 -278
5.1562 -1262 995 -3079 1146 -1452 1303 2329 1457
5.1504 181 3872 -239 578 3622 -827 1959 2508
5.1445 1012 14 -49 -524 252 -621 -598 1056
5.1387 -1655 -1962 1699 -815 586 1553 -2394 -713
5.1328 -739 -1259 -634 -208 -465 -598 3120 -252
5.1270 2108 2926 -2188 -916 -1915 1267 98 999
5.1211 -2650 749 714 -1405 -96 311 2336 1368
5.1152 -2744 -1365 740 -1034 -1384 -2350 -596 662
5.1094 -84 783 -1405 -2445 -1148 1384 -1534 -2290
5.1035 1939 1628 1188 -227 -2422 -2512 695 2661
5.0977 -651 -63 -1716 1148 -2089 -765 1415 2720
5.0918 -1046 -505 1195 -443 -1002 -1047 -75 111
5.0859 -865 1882 -1442 466 143 -990 -2521 1068
5.0801 -1266 1685 328 323 -1120 -2746 -1062 992
5.0742 -858 -420 1439 813 -847 2276 1524 -329
5.0684 -2013 -1087 2041 -485 -1474 -338 716 770
5.0625 882 90 1211 -357 1617 -1512 2221 718
5.0566 -965 -46 1090 -141 2350 -974 -1897 1894
5.0508 -253 1019 3634 -613 -479 -2581 -1723 -737
5.0449 1178 -130 832 2391 2105 -1427 1526 161
5.0391 2396 1448 1395 -1402 4416 523 429 -3344
5.0332 139 1769 1646 188 1618 -44 -559 -3842
5.0273 778 169 -1708 246 -1468 -1582 -380 -122
5.0215 -944 300 1591 -67 67 -120 1118 418
5.0156 108 49 1822 2057 3542 -146 533 1637
5.0098 1002 -1973 -2789 -2747 -870 -188 -1579 1237
5.0039 -607 1930 -1774 -2815 -43 1613 376 854
4.9980 -2484 28 1273 2248 -441 4781 2162 -211
4.9922 -172 -271 -1526 1058 -524 -756 -1502 1991
4.9863 -443 -97 1541 -1712 545 84 -1202 -1555
4.9805 1867 96 -1850 861 574 743 2409 148
4.9746 -2340 -1424 438 252 1725 2240 1064 -445
4.9688 -1745 -841 1161 3011 -770 1145 1746 -147
4.9629 -1185 -58 -2281 -767 387 -1416 737 537
4.9570 -576 -1176 2445 -1187 269 -271 668 1088
4.9512 -242 70 1123 -2092 -968 -287 -155 877
4.9453 701 1792 -199 517 1085 -1402 611 4220
4.9395 -494 -2995 -891 1750 1895 -2828 -2018 3281
4.9336 -434 802 1347 963 20 28 628 -492
4.9277 -958 -350 2093 -2493 438 -2495 252 1492
4.9219 -378 535 405 2450 1005 684 -902 -300
4.9160 -501 -1223 -1347 1328 -2668 1871 -499 285
4.9102 -1594 -341 -491 1308 323 -166 505 536
4.9043 -987 2011 82 2009 495 -661 -2454 -1797
4.8984 855 -309 -27 3503 2682 -1273 2131 -1037
4.8926 1949 758 -421 1295 748 -1156 -67 -2462
4.8867 2711 751 2502 -1192 1617 1164 341 280
4.8809 4858 1649 -1375 -1104 2435 -1679 -34 -465
4.8750 -2155 3016 -749 772 -1519 3091 2068 453
4.8691 1302 1449 -1336 -1961 355 -184 512 1321
4.8633 551 -2585 542 826 385 -950 -584 -911
4.8574 -2647 1430 -1412 -445 -1187 1827 2527 2805
4.8516 -1179 364 -1240 881 678 -131 837 -1963
4.8457 1975 -341 -566 -1379 -1250 274 -1719 205
4.8398 730 -131 2321 -1259 -1250 2741 2055 2709
4.8340 -864 -2252 1415 -1492 -1707 1181 3105 -418
4.8281 -1623 -1235 -114 -2082 -105 -2473 -1448 116
4.8223 -259 -1253 1444 323 -1229 -1117 -1130 1723
4.8164 1881 1798 -646 320 -1292 316 1785 -986
4.8105 619 -313 5264 -538 17 -1852 -1117 673
4.8047 -664 -728 -165 -2638 1528 482 1024 1943
4.7988 1606 414 -880 415 248 -439 2723 -301
4.7930 1220 -753 245 -1452 32 615 -99 2005
4.7871 -775 -323 -1599 -118 -492 931 1139 850
4.7812 -887 12 660 -1315 1894 1600 1202 -1037
4.7754 3420 -2734 -975 757 732 733 -853 1671
4.7695 2077 -434 -653 1433 1725 -117 -209 -715
4.7637 -1012 -1328 100 2238 1051 -663 -841 803
4.7578 -2476 -722 1220 -2011 -201 -495 3310 -728
4.7520 -1347 -1756 -1735 -671 333 320 2150 1196
4.7461 -2261 1494 686 283 301 789 -917 284
4.7402 1039 -84 1264 2078 -1647 1919 452 69
4.7344 820 -119 764 -2688 233 2982 1335 1713
4.7285 4534 1525 -900 910 368 1656 402 227
4.7227 889 548 -198 -208 1657 -1362 312 -2555
4.7168 206 180 1157 8 921 679 762 1232
4.7109 1109 807 1105 1554 1020 661 -2188 -1796
4.7051 404 287 552 180 2699 665 -1102 648
4.6992 -2549 -512 421 2120 -2055 -331 -2581 -202
4.6934 232 -2056 -1423 672 790 -1196 -69 -2261
4.6875 -1742 -1588 -858 -10 92 157 1460 116
4.6816 -1697 -150 -976 -741 -12 -87 -565 -4405
4.6758 36 1733 198 598 -146 969 -151 -3086
4.6699 554 634 2428 2511 1873 1459 -1060 150
4.6641 512 -1572 -2824 -909 -618 -1585 -2143 -1110
4.6582 373 1389 -87 349 -2839 -2644 2326 -848
4.6523 1205 2249 -2017 -940 -1273 -3459 -708 -1457
4.6465 1907 -624 1241 231 -1300 865 -835 394
4.6406 -2874 -671 212 554 -2208 491 -983 -481
4.6348 -354 -1443 624 324 -2585 2182 -1453 -1242
4.6289 -2698 2143 985 -506 1004 715 -1534 -2410
4.6230 1187 -1414 93 1324 283 2720 -596 -973
4.6172 -3233 -102 1260 1175 -638 -1155 -130 401
4.6113 -1478 -394 -548 -273 53 -72 1472 -2030
4.6055 103 715 -1677 1485 -798 878 455 2106
4.5996 2195 -1738 1390 -661 1280 -314 1328 232
4.5938 -2245 685 -1978 -2009 644 507 2234 7
4.5879 1466 -706 3224 80 1892 318 1977 622
4.5820 -1152 -1300 -164 -1392 3685 395 2504 497
4.5762 -870 -528 60 182 -1365 2972 500 -605
4.5703 -1701 1437 3291 -334 -146 2920 -716 -988
4.5645 162 890 -1013 1226 529 -409 -1768 2552
4.5586 1254 -895 2328 -1307 588 3866 936 -2755
4.5527 0 -1043 2103 2551 2328 -2314 -212 -337
4.5469 821 2238 235 4317 -2306 -201 3102 235
4.5410 4054 975 2948 -606 -989 -1168 -2491 -1460
4.5352 -917 936 317 -3570 -38 847 5530 -1810
4.5293 106 -3113 739 -134 1521 1751 1304 4006
4.5234 1518 -361 -1600 -775 -1225 498 -1814 -838
4.5176 -1182 1173 -694 -498 -688 519 -779 -2790
4.5117 -884 -488 987 -1081 3558 71 631 -1066
4.5059 -187 -2267 299 1337 -128 2446 1689 536
4.5000 118 1964 -338 -1776 -2575 -1059 -2136 -382
4.4941 115 1783 -1215 533 -54 -138 -1909 -768
4.4883 -1275 2044 570 914 -1497 10 1830 526
4.4824 839 75 -368 -2073 1730 17 816 -138
4.4766 -261 -1277 -3978 184 1268 600 314 -517
4.4707 -2222 -2216 2234 2154 2560 -3396 989 1103
4.4648 -1555 725 -1474 -1457 -4599 2227 1016 -1997
4.4590 1371 224 -222 1543 -356 836 188 2007
4.4531 618 623 670 833 2493 -2943 79 -4503
4.4473 -1390 2254 -1660 1759 1029 -323 -1422 884
4.4414 253 3370 731 -418 1154 1613 1080 1105
4.4355 -1174 -1209 -65 -101 229 -1749 -2583 -1143
4.4297 -1352 -1409 -470 109 34 -2293 777 -500
4.4238 -1188 477 -96 277 -1399 231 -659 71
4.4180 -1912 219 -1524 419 -402 -2468 -1139 2109
4.4121 767 887 -1574 2578 1608 957 -355 -1584
4.4062 -1812 2643 -3855 372 -566 475 -103 -300
4.4004 628 -986 2437 642 -503 -1528 -1114 692
4.3945 -1047 -25 -1601 -1156 312 -116 -1177 -1336
4.3887 -518 -953 191 779 714 1804 598 144
4.3828 146 -40 -164 402 -2729 1134 1418 -1018
4.3770 -711 -1651 -1490 -1024 2610 -1576 690 -1085
4.3711 129 -2029 2222 -2063 1105 758 894 -1291
4.3652 126 879 406 -2995 -1589 -447 584 -944
4.3594 1424 -1518 1588 -119 -1531 -2765 1504 -560
4.3535 -24 2072 -1123 3204 753 -2268 -630 -335
4.3477 646 -234 1558 2275 -943 -1558 -197 -924
4.3418 1552 -532 -3032 2013 1509 1102 -1661 -1958
4.3359 -1344 -469 -525 1617 -160 -1670 -200 2518
4.3301 -1558 2853 -1895 -267 -242 702 1422 419
4.3242 1121 -1271 288 -714 1330 -255 -1081 949
4.3184 -553 34 -4108 1254 269 -2199 1896 -2917
4.3125 45 -2687 1524 -2038 -3838 890 1060 -636
4.3066 454 -573 278 413 664 106 -254 -653
4.3008 1989 -1773 -17 276 -1981 -1941 -1241 -1
4.2949 2085 -1271 -932 233 -163 -2107 1319 4194
4.2891 -1309 1008 2260 -86 716 333 3480 -1990
4.2832 954 199 -688 -634 -824 -339 1606 2426
4.2773 -302 -794 1001 -451 -573 2175 -734 -558
4.2715 -2077 755 -1046 -102 -1587 -562 1505 1147
4.2656 901 730 327 -110 -1888 -576 593 -2163
4.2598 -701 3253 -384 -49 -69 134 -2184 568
4.2539 -831 -633 4094 171 712 2151 -2163 167
4.2480 -1025 1155 2461 -638 988 1546 2640 -1071
4.2422 -2283 526 1424 1272 -193 -228 -76 1425
4.2363 -408 -493 -1217 673 -3007 488 -90 2765
4.2305 -1059 -1328 -3241 230 1847 -863 -2375 -1390
4.2246 3020 -1184 1255 -49 -1013 -1076 668 -59
4.2188 -2740 10 1247 247 -2688 -4654 -336 -2109
4.2129 122 1414 1859 -575 -535 -1251 -446 242
4.2070 -1170 -1526 267 1977 -197 159 750 -839
4.2012 -1891 -197 1002 -1488 -487 -615 -1353 -509
4.1953 767 -235 -656 305 -1534 426 1436 31
4.1895 -269 1292 777 1118 949 -2137 1819 -157
4.1836 3567 -2859 931 -2740 -2496 725 677 914
4.1777 536 -2431 1090 844 256 748 2078 -950
4.1719 -326 2081 1449 528 1053 -609 -1588 918
4.1660 1195 154 486 -198 -1 -1027 -278 -352
4.1602 -259 52 197 -76 1637 -294 1696 -269
4.1543 288 -2399 869 1072 1326 389 1774 -1696
4.1484 874 841 1972 -407 1646 -1886 1563 532
4.1426 3096 -1220 117 154 871 1376 -282 -761
4.1367 914 -1213 678 -3473 704 -2737 -336 1216
4.1309 -415 432 304 4343 595 19 -220 1415
4.1250 -833 -792 641 1756 968 235 -1444 -1060
4.1191 -2455 1137 -1053 -268 -110 -676 103 738
4.1133 -1819 1007 -1888 -544 -8 -1180 128 1438
4.1074 -2259 -2125 260 -913 404 740 -675 766
4.1016 2643 -1770 -693 -2969 2775 2172 1406 3896
4.0957 1243 -791 1001 1940 -14 1995 974 -445
4.0898 -2386 1121 -1312 688 -3540 -1460 -542 -107
4.0840 -45 -543 906 -99 -265 1862 1212 1500
4.0781 -1370 2131 -211 2288 1929 2687 -596 873
4.0723 1071 437 603 702 1832 136 -3619 1219
4.0664 1808 518 -516 869 2228 -1993 -899 1496
4.0605 -879 513 -469 -9 197 1402 -328 -1093
4.0547 1373 -254 403 314 1573 -1629 -709 3135
4.0488 -2256 230 -688 -2849 -2313 -3153 -2372 -681
4.0430 1190 352 -1584 -410 2702 104 -3313 -1735
4.0371 1230 -1550 -752 2508 -1867 2272 -950 -1893
4.0312 2279 -2967 -359 1792 2713 1189 237 -2520
4.0254 145 150 720 -1662 -566 1812 2890 -865
4.0195 1573 982 44 -1900 -1488 -702 486 795
4.0137 -376 976 -1895 -1353 30 -561 -275 2289
4.0078 1132 719 141 -1167 -536 869 -1008 -161
4.0020 808 -1376 1444 -1308 1533 -2270 -1358 -43
3.9961 2360 -913 99 -2195 4593 -2625 1001 -2817
3.9902 -269 928 4401 -294 2484 -1468 448 -113
3.9844 93 -1099 2956 -816 1578 -337 -234 -856
3.9785 -1714 -2061 -568 -389 1846 2635 -1599 -2394
3.9727 2871 357 -2270 1012 -3012 1101 -2438 479
3.9668 642 1331 -210 -80 -1164 -2697 595 -189
3.9609 -1724 -1934 -320 -3230 1249 1458 -552 -701
3.9551 589 1209 172 -334 2884 -1035 1093 658
3.9492 888 990 -1649 1660 487 1153 1039 -768
3.9434 2155 1491 1043 -1388 1705 -18 37 -1120
3.9375 -473 -1071 1175 -658 -2237 84 -2890 -271
3.9316 -1313 2112 121 -2406 288 1622 1060 1826
3.9258 -2574 -121 20 2883 -530 -4 -2504 -2467
3.9199 -1855 2396 997 -1970 516 -939 -494 1493
3.9141 -805 1574 886 -604 1165 -1570 -473 703
3.9082 -171 1780 -5310 383 1497 -1305 -648 2851
3.9023 1149 -3659 -2198 -2663 -1757 1048 -618 -604
3.8965 -2885 -282 -2076 -1010 910 1404 -1412 793
3.8906 1192 -30 1752 -426 1356 352 1131 809
3.8848 1881 510 -1559 -1967 224 -2679 -147 -251
3.8789 736 -1726 -2081 600 -82 673 1954 -472
3.8730 -1035 -405 330 1634 -1328 268 1506 533
3.8672 687 -120 -1254 2852 -1835 1604 421 -72
3.8613 2437 -947 766 553 1144 -1782 -990 -128
3.8555 1462 668 -1215 -3300 574 -1555 2142 -189
3.8496 2850 526 736 -2302 2315 1266 -1172 372
3.8438 -1133 -563 -190 1714 -1205 -162 -2196 -286
3.8379 -1038 2235 -378 -392 398 30 1096 1216
3.8320 986 -2855 2557 1925 1331 1683 -540 936
3.8262 -514 -1408 -470 208 699 -240 2329 3395
3.8203 -16 1568 757 -1774 725 -1811 -1415 -162
3.8145 -908 280 -2537 2132 -524 2864 -953 -1388
3.8086 -385 -1346 -521 -1352 759 -253 -81 -197
3.8027 2229 -978 2354 -644 848 -2014 3207 -202
3.7969 -1468 -744 3113 -1547 -175 1194 7 -1611
3.7910 -90 1696 806 514 151 2146 372 408
3.7852 -812 -23 537 -683 1937 -1958 1491 1689
3.7793 1349 -2337 385 1624 -1430 -935 -2200 -1239
3.7734 759 -842 -2777 633 -1402 -2974 -364 -2679
3.7676 2825 -1590 1758 715 -1176 1002 27 -58
3.7617 -1679 -1128 -2156 -649 -99 527 921 3196
3.7559 -854 723 47 341 -395 934 905 1373
3.7500 -884 2782 -1452 610 -1431 -1226 -586 -427
3.7441 -1208 -810 -3805 870 220 -415 -1312 -23
3.7383 352 -1287 513 -2425 -971 -322 2339 -241
3.7324 1263 1416 852 -436 -2506 540 -1009 1463
3.7266 -824 1681 -835 -925 2931 2987 1307 -3176
3.7207 2154 -2168 -517 1196 -73 613 -514 -4
3.7148 1449 511 -951 801 1196 310 -1188 595
3.7090 -1751 -54 869 673 1620 809 290 -1121
3.7031 472 -663 -62 2135 -727 -2484 -24 3098
3.6973 -3058 171 176 -1405 1402 -166 -302 -884
3.6914 -326 33 -634 1162 -632 -1323 1262 3724
3.6855 -487 -1609 -1483 128 1866 -1076 1187 -2352
3.6797 -1986 -139 333 992 994 2845 954 344
3.6738 -281 900 -413 2077 555 -654 2132 -680
3.6680 24 1860 1714 1134 2233 -663 149 797
3.6621 -180 -2420 617 459 309 135 -591 -99
3.6562 -1229 -1119 -1784 -1165 1491 1274 -212 1814
3.6504 -768 1727 3840 1045 -1021 163 -1295 -623
3.6445 379 -1391 -3437 -738 754 -1865 771 1697
3.6387 -1255 -11 1217 74 -756 -104 -1010 460
3.6328 383 1226 1155 1537 -1819 -2603 -1575 586
3.6270 -935 -1245 -3390 -140 -1493 2139 -598 -1385
3.6211 -1570 -930 248 1862 1735 -641 3120 1948
3.6152 1944 287 293 -2030 -1234 -1395 -2003 2861
3.6094 570 -2444 -2448 -504 688 444 -596 -1213
3.6035 -848 -1623 -614 3172 429 -3464 -2151 -3685
3.5977 2147 -650 428 -1003 2522 47 -1761 -1624
3.5918 -1925 907 -2017 2985 -859 1017 776 479
3.5859 -2179 2125 -1090 556 756 -4741 -749 850
3.5801 391 372 914 -770 706 -5734 2868 -3826
3.5742 352 862 -1165 -1227 339 -1773 -438 -394
3.5684 -2264 1766 1729 1462 3766 577 -1059 -948
3.5625 -653 464 -1990 -625 2372 973 1183 -2884
3.5566 -1759 2550 232 555 17 -509 1487 1522
3.5508 542 878 1707 1841 -1404 -496 -1785 1350
3.5449 -1822 808 2176 -268 839 -84 -107 -753
3.5391 1828 -1086 1446 -290 308 -2410 -939 -57
3.5332 -131 1094 -347 -1668 706 -556 1222 1598
3.5273 -211 1669 2713 3911 -735 2637 1614 1090
3.5215 -418 -745 -2040 -2231 1017 -682 358 -1173
3.5156 -95 -1749 -836 1403 2386 563 2075 567
3.5098 817 951 1168 1053 -1804 -3561 -2497 162
3.5039 2183 -661 -1470 -727 2235 -763 154 2060
3.4980 1094 -2245 -115 797 1207 -2291 -2079 541
3.4922 -597 -1510 -2140 1048 1005 -635 1729 -1478
3.4863 3012 2782 -854 58 -977 831 24 848
3.4805 828 1316 -1307 1347 2973 -172 -2374 1373
3.4746 3555 -1157 697 -454 -234 249 -590 -425
3.4688 115 1457 -41 -245 1061 -681 -275 -2018
3.4629 677 691 369 -1686 1204 1115 2044 -2507
3.4570 -1502 -1912 -557 90 -1921 -1489 2316 -673
3.4512 -2759 -874 -726 756 -2768 74 -1360 19
3.4453 143 -149 -1896 -4531 -545 -2053 -1184 -3197
3.4395 -458 2592 -1571 1069 -1443 4117 -2523 -431
3.4336 365 433 -1964 2150 -112 -657 1970 611
3.4277 -727 -1269 -13 2553 -2382 -339 -787 -465
3.4219 -2054 1987 -790 -204 272 -710 2951 3020
3.4160 2348 819 1204 1444 1090 695 1093 -2156
3.4102 -1863 737 -497 2 -1328 3 -789 -835
3.4043 -1310 442 -745 -1048 -1946 -216 -1852 2947
3.3984 -1101 373 -1443 1984 1334 1922 -3575 -1883
3.3926 -783 67 876 -2243 -1965 -551 -917 -98
3.3867 -514 1722 -1319 -2495 -1386 756 -1342 2116
3.3809 -692 3121 1110 -538 -2263 -209 2741 1044
3.3750 818 -1570 -1353 150 -902 33 995 1312
3.3691 -774 -117 -454 -660 -346 -259 1863 -1438
3.3633 58 -65 -1786 -1003 1793 577 502 905
3.3574 -171 -2160 -931 -1123 673 882 -1521 662
3.3516 1816 -2406 1211 432 228 872 -711 -1800
3.3457 1439 1416 -1179 800 1903 -1694 2252 2308
3.3398 904 -1139 945 -702 1042 -1567 -1485 2992
3.3340 1499 1730 -642 -1563 790 790 -802 617
3.3281 673 -445 -1983 -2549 -150 -15 215 635
3.3223 -627 1909 -1667 -2457 -3041 -815 819 -1409
3.3164 246 -1988 -1975 -377 -1429 1069 1081 1569
3.3105 948 -933 -1373 -2115 -1001 2278 2636 -952
3.3047 -2608 1792 1329 -1197 -2480 104 597 -921
3.2988 92 322 653 1456 -373 2540 2381 -494
3.2930 -913 -1859 -842 -448 -6 330 -1245 33
3.2871 -237 2268 -234 -1387 -101 2371 156 1037
3.2812 2658 -188 -275 2531 -447 -927 2482 -399
3.2754 -770 1538 883 -3225 1461 -677 -101 1905
3.2695 869 1765 889 1959 815 -536 872 482
3.2637 3635 -385 -2088 2513 376 2251 1426 6
3.2578 -374 -178 -1819 -50 1882 -2097 327 2144
3.2520 757 465 -420 -1497 1101 792 2119 222
3.2461 1209 485 -299 -1909 -18 2676 680 -535
3.2402 -721 613 -558 590 -1672 -378 -1532 -1922
3.2344 -1897 1537 289 -1163 -1320 333 -968 -2391
3.2285 -1385 1465 2665 379 230 2207 -563 2747
3.2227 -50 -246 494 32 -519 216 1146 1474
3.2168 1739 1412 -380 -3098 2017 -801 542 476
3.2109 1054 1491 158 -59 -3497 47 -625 -3092
3.2051 -467 684 360 40 -1974 44 -1419 -1040
3.1992 2469 -1940 207 -1341 -812 -1133 -43 0
3.1934 -2794 382 2495 -1720 342 -1821 816 -1682
3.1875 1303 -87 -341 1381 4149 -524 1786 2892
3.1816 -2352 -1641 -1224 -876 870 2471 -1369 1990
3.1758 -1140 -1141 1013 -1342 -698 1762 -267 1812
3.1699 447 1576 497 4382 -1498 511 -986 3355
3.1641 -99 522 287 1167 4327 -2505 -1259 458
3.1582 -1520 998 964 9 578 27 -1387 -2011
3.1523 -606 -352 -310 2073 -294 587 -561 -653
3.1465 -446 530 1894 -785 -2743 -2547 -2259 -2844
3.1406 -2315 -1734 1009 -351 2231 -2535 530 532
3.1348 1093 1316 -1118 859 318 -594 -13 -70
3.1289 -523 -2618 -83 937 2411 -1250 -320 49
3.1230 919 1224 -190 -1229 2024 -868 4531 1761
3.1172 -841 2921 117 -2447 -1438 3136 1222 1872
3.1113 3150 -542 376 747 1190 -2525 -1607 2228
3.1055 -2479 -2874 -1354 -2562 -2327 -1047 -2360 2108
3.0996 -1191 2581 -307 358 1307 -1322 -204 1852
3.0938 1201 678 271 2123 -479 -2006 -1102 -270
3.0879 -3025 533 -1652 1656 893 -700 -1348 -772
3.0820 -251 -378 1143 165 691 -1238 -2568 1643
3.0762 -1689 -22 1075 -1783 -469 -2250 187 -639
3.0703 -1434 -1446 -445 497 -352 1333 -73 -270
3.0645 217 -232 1938 26 -499 -185 -2182 -612
3.0586 28 2448 -312 -365 -1726 -475 -439 -1976
3.0527 2311 -714 1482 192 -1747 1386 153 -445
3.0469 760 -2151 1478 -550 -845 -514 -183 75
3.0410 1531 1587 -1518 -853 248 173 549 -422
3.0352 841 169 -1769 -657 1172 -2498 1241 786
3.0293 -1229 -1390 -385 -1185 -822 1258 -561 -1881
3.0234 1509 -2643 557 -73 7 -1251 -787 734
3.0176 29 3218 427 2411 -1174 1179 -986 88
3.0117 2962 1637 101 -1851 1016 91 4770 1654
3.0059 -597 -890 1274 -2225 -574 -3743 -278 970
3.0000 3543 647 -1220 -617 -2355 44 400 312
2.9941 -2029 1331 495 1383 -1623 -429 762 683
2.9883 608 284 -2508 -1373 2269 701 379 -594
2.9824 954 -232 -522 2307 531 1860 -906 -2080
2.9766 916 -726 613 1153 -508 556 33 -2432
2.9707 364 859 -351 1796 -1169 -2045 -1124 1210
2.9648 -879 -3279 2760 -3574 -445 -2071 -1417 -2773
2.9590 471 -1211 2059 274 -704 495 -1302 -377
2.9531 14 -59 1009 -1728 -1840 1146 31 -148
2.9473 648 -222 753 614 -3609 2189 -61 2252
2.9414 -71 957 1184 -1761 684 -1639 943 1438
2.9355 -1128 1851 558 208 -754 -1214 -316 1216
2.9297 118 547 -582 -550 -1194 130 -591 2790
2.9238 -1805 -1029 -950 -85 -747 2281 2885 275
2.9180 -1098 835 -579 518 -1246 1068 -188 -1159
2.9121 1895 483 555 1587 -1052 -259 987 -1654
2.9062 3220 -565 2031 -1829 564 -507 251 309
2.9004 -2832 -135 955 -2369 -2074 -271 -801 -666
2.8945 1460 -2669 1090 899 -701 348 609 327
2.8887 -2655 924 267 -1788 -3118 -226 1718 1387
2.8828 1248 2398 -179 2066 -1287 -914 -395 -1191
2.8770 3192 -1868 1932 -119 -759 873 817 -2435
2.8711 -1357 1870 3486 386 -1089 1280 -3187 2672
2.8652 2298 -897 -598 -1482 1609 1087 1448 -718
2.8594 1522 1589 1450 3878 1783 753 1937 758
2.8535 -10 306 -1253 2310 -299 503 -2359 -1259
2.8477 -295 1919 -1329 2814 1742 802 2522 -1732
2.8418 -1168 1538 661 2093 -266 -879 -976 290
2.8359 934 -2082 -1878 -2130 -919 -632 -759 -2474
2.8301 1233 1545 -362 -3014 -29 276 -1915 -605
2.8242 -1707 2249 -814 -3624 592 48 305 628
2.8184 447 1168 836 -990 382 -247 1395 -702
2.8125 -1999 450 -404 2279 258 277 2359 -950
2.8066 -1569 327 -68 979 45 -635 235 559
2.8008 907 840 2250 1965 977 -48 -294 -1767
2.7949 -907 821 -2291 455 -1354 -1004 -1849 357
2.7891 1695 1488 -905 272 302 1961 -2928 -3341
2.7832 -626 1135 793 -1350 1440 2569 462 -1573
2.7773 901 -682 1472 227 2201 -1013 402 697
2.7715 -1900 652 1186 -2076 252 -1216 -2528 911
2.7656 404 929 22 -3453 170 -1787 131 -566
2.7598 936 -3013 -23 344 -738 2465 -1367 -1351
2.7539 477 251 954 -1995 -3879 2007 -1041 -1297
2.7480 -892 1267 1968 929 -1249 2311 -332 -1168
2.7422 -200 -834 -1607 -140 -1837 -1732 1104 -1923
2.7363 240 854 581 391 -57 2760 386 1613
2.7305 -1372 769 -702 3066 -1422 346 238 -1842
2.7246 -690 -311 2449 -1671 101 1035 -3135 3078
2.7188 2277 1702 351 892 2591 1119 1483 418
2.7129 1708 -1261 1718 -580 3284 -988 500 716
2.7070 -1685 -1575 -1872 464 264 -417 -1073 1014
2.7012 -1538 1516 516 -260 -112 -414 -188 -684
2.6953 -406 2335 2890 510 -4055 551 70 -2343
2.6895 1834 363 -4076 193 -1660 118 -2003 2248
2.6836 2267 -2033 -2240 1621 -1149 -382 -4729 399
2.6777 122 467 1411 -611 -516 -1815 1245 1408
2.6719 -823 -102 -2184 2506 1935 -11 -3431 1803
2.6660 -1796 569 -3457 1469 2355 1377 1079 104
2.6602 1237 -519 -2589 -964 -2820 -147 2303 -923
2.6543 -35 -853 -475 -72 1713 780 -1380 -98
2.6484 698 2590 1833 2474 -2593 591 2446 75
2.6426 -1749 1610 1317 823 -404 239 -764 -594
2.6367 -660 -1978 -310 253 743 306 -318 -1500
2.6309 1523 -443 -1443 458 -1680 -888 -766 395
2.6250 -276 1151 744 -246 -1071 603 992 -961
2.6191 2437 -465 1624 513 -1935 1326 1108 -1305
2.6133 2102 -2123 489 -1268 -610 -1153 -1251 1595
2.6074 -183 2889 -1428 346 -300 1061 -1631 -1228
2.6016 787 -849 1572 2143 47 2474 -2656 -438
2.5957 -1427 129 317 301 183 -49 -805 1221
2.5898 -1930 -2194 2396 746 -1198 3798 2063 1460
2.5840 -1982 1807 -5 1396 -1228 -1385 -618 961
2.5781 -765 -632 -1656 -1465 1111 -1972 641 81
2.5723 58 169 -12 2703 -1080 321 795 389
2.5664 -797 -365 -170 -1226 -1657 969 -21 1113
2.5605 -92 -631 97 512 440 2272 -27 -1095
2.5547 -633 64 -1735 625 -2124 911 -754 289
2.5488 -836 -2077 69 -683 1702 1740 -608 -2209
2.5430 -783 2947 -1289 679 -2246 -2244 935 -133
2.5371 606 235 -611 301 564 -2357 2235 529
2.5312 1856 -2646 -1772 -1045 -1229 -423 -1737 160
2.5254 -2218 2583 -105 -1946 -184 -875 518 585
2.5195 531 -111 2955 2364 -1027 919 1788 62
2.5137 266 -1936 45 1006 -2933 -343 1279 1186
2.5078 633 -129 -916 936 402 252 1884 -408
2.5020 -552 408 -924 2351 1349 976 -1911 3123
2.4961 1383 -1771 -2351 -1071 665 1312 1332 -1006
2.4902 538 1002 73 116 814 -1573 -4514 -433
2.4844 -790 1239 499 3290 -404 3881 2093 1211
2.4785 -491 1891 390 3275 -576 -697 -595 -345
2.4727 2431 384 -2375 -926 1931 727 172 -538
2.4668 1725 838 372 2626 2973 2484 -1549 1861
2.4609 -494 -2623 -2469 -986 394 655 1090 -562
2.4551 23 -32 846 -1231 1675 634 -4692 1700
2.4492 3068 -1693 298 374 2084 1616 2699 -1730
2.4434 1093 -1019 717 -22 -115 1554 -524 -1907
2.4375 -123 -139 -668 -684 -442 2665 2578 404
2.4316 -2912 266 987 -224 2003 568 613 -363
2.4258 -2661 654 -2735 3172 -188 615 999 -904
2.4199 805 -410 1887 -1317 -587 243 715 -1362
2.4141 1288 3053 305 158 -2136 -930 1765 2925
2.4082 862 -1207 1727 -716 434 937 221 -161
2.4023 -102 833 -1586 -98 3573 465 1243 1004
2.3965 2673 966 -1738 1651 1260 1613 -1944 217
2.3906 998 1572 -58 1880 -714 -1266 -793 3387
2.3848 370 44 2390 -2975 -3178 1485 2238 1114
2.3789 2530 2181 1456 371 2410 1742 1868 755
2.3730 -544 1828 347 3897 2165 1761 4519 4153
2.3672 443 4482 2543 589 4204 5360 5379 5638
2.3613 8105 6367 6310 9158 9792 14488 16165 19239
2.3555 25371 34097 42126 60703 91232 148094 240510 343247
2.3496 338553 230129 142778 90991 62169 44189 29689 25239
2.3438 18894 15028 9982 11445 9802 9013 7447 6918
2.3379 4251 3615 6606 2221 2691 3271 3473 2802
2.3320 4224 1913 818 3375 3701 2074 -343 1120
2.3262 1707 3312 1945 1387 407 2623 90 1419
2.3203 2756 2875 1289 1914 2317 140 2799 43
2.3145 -582 1884 -553 2804 1522 540 2654 1047
2.3086 1151 1000 -108 1531 -391 72 1780 -364
2.3027 1550 3149 2741 -218 1531 1342 1449 -163
2.2969 -187 1085 136 1806 649 2202 647 672
2.2910 -1528 2682 1428 -1047 692 -2403 -1347 -2295
2.2852 391 2020 606 -319 1739 523 -2588 -1286
2.2793 -507 347 1337 2496 -1805 -555 -541 -1526
2.2734 995 2264 -2463 177 2683 -466 410 -1080
2.2676 504 -1072 1011 -244 2257 -1393 -1512 632
2.2617 419 -1445 -238 -2853 -1635 951 1667 -1826
2.2559 1385 -29 -879 1313 -1937 1618 -1645 126
2.2500 854 -800 -899 -855 912 339 -40 475
2.2441 -1335 -2214 1778 1006 -160 3457 -365 295
2.2383 -782 -230 -387 28 869 -3355 -1690 -1104
2.2324 -305 -1474 828 -1293 2583 1556 -1579 1710
2.2266 2218 1282 191 671 -807 -271 2605 -2191
2.2207 923 725 1059 -1485 -4368 -736 -1427 1987
2.2148 243 -1814 2654 613 -2624 -740 1263 -2771
2.2090 -141 -1101 1450 261 -2252 81 884 -619
2.2031 -453 1188 -1349 -832 276 2051 -1530 -582
2.1973 38 -432 1475 -631 -1770 -483 1474 11
2.1914 -679 -2149 1088 -2452 1668 376 -575 -561
2.1855 -938 115 1907 -472 -56 -789 -185 124
2.1797 -1372 -740 1107 2558 -3375 1751 -366 -581
2.1738 65 1264 169 -546 -2965 328 1235 -1606
2.1680 -2551 410 2177 3013 -1019 -1637 1682 -1624
2.1621 -27 492 -980 -744 1624 213 -530 2098
2.1562 -107 -158 571 946 -2363 1023 -319 432
2.1504 -486 1059 -1261 2166 -1524 -1770 409 -1198
2.1445 -4388 1057 -324 1122 655 -517 -423 -2662
2.1387 -204 827 -194 957 2121 494 2834 2733
2.1328 2656 -1225 -333 1433 -432 1194 620 1668
2.1270 1132 -2652 816 589 -2500 2788 3498 1184
2.1211 -39 1702 -122 627 2803 4524 1222 1035
2.1152 -571 1915 2662 587 2039 2802 6206 2629
2.1094 6497 8385 10163 10262 13606 14577 20272 25505
2.1035 39327 52249 83009 136337 210082 238699 178426 110526
2.0977 69915 45933 34985 24008 19562 14782 11702 11018
2.0918 9817 10607 6721 3007 1712 7591 5999 6163
2.0859 2636 1438 -94 4890 2289 2947 1749 1308
2.0801 3132 845 1790 3584 243 1467 -464 3022
2.0742 -1063 -271 1007 1156 -503 -715 -1451 1047
2.0684 -613 -418 320 -132 83 -865 -1810 134
2.0625 1162 -629 -1664 -183 728 -917 -1911 2379
2.0566 2861 -325 -1098 404 352 1237 850 1657
2.0508 1464 1950 -751 -2193 -2575 -2073 -483 1899
2.0449 -1217 733 -1248 1103 1091 670 -1280 -106
2.0391 -1462 -1850 1511 -812 2382 -1585 -1013 -29
2.0332 -465 1074 776 122 -1212 -561 3112 886
2.0273 165 1130 167 -1141 -573 2357 990 -348
2.0215 843 1747 1701 950 -460 1645 2246 -2393
2.0156 -1152 -1978 -1997 -698 -1630 625 -152 812
2.0098 981 -194 63 610 -717 -1942 -1491 -2917
2.0039 -1454 821 -2118 1122 -81 -666 -1939 776
1.9980 -1068 643 -995 1738 3084 -563 -1170 -954
1.9922 -144 1668 101 -840 -1395 -1048 336 -135
1.9863 2422 47 -1437 75 -1213 12 324 -636
1.9805 505 -1112 1692 -1666 2051 -274 -1151 -246
1.9746 -1059 -646 -577 1358 1377 -29 1377 151
1.9688 -3405 -30 -398 1079 -1740 3539 324 353
1.9629 -1082 105 340 -488 1303 1742 -665 -335
1.9570 -779 -1990 1552 1924 947 3301 628 555
1.9512 583 -204 1417 1220 696 93 1034 774
1.9453 296 -563 1997 -3266 934 1443 -463 629
1.9395 -152 -790 -3129 -235 -1583 1343 1465 -2552
1.9336 -2827 1857 895 1153 -3132 500 -116 1504
1.9277 1432 -5044 3062 -1324 493 -1107 -313 -2874
1.9219 297 -142 373 -837 -810 -471 -1314 -1383
1.9160 -1032 -1623 566 -1602 1797 -173 155 -2209
1.9102 23 2015 -1697 1961 -1197 -849 -936 1451
1.9043 2312 2674 1848 826 -1711 -349 -1969 -364
1.8984 434 2978 -381 -3081 -1667 693 1743 -2736
1.8926 -1077 -180 -1445 203 -1083 3166 -1509 -793
1.8867 1102 412 920 -694 2377 -1548 -1482 -237
1.8809 583 2842 688 20 -672 -139 -1362 1835
1.8750 1195 -728 1698 -354 -793 -272 -1180 -1077
1.8691 -1308 -884 823 -775 1046 1233 280 -414
1.8633 423 -685 826 1642 -1345 -1831 1000 -2951
1.8574 -1147 967 -1656 -838 -622 -1305 -268 -1316
1.8516 1432 1870 -577 -2906 -1222 -936 -936 -1950
1.8457 -30 -202 1184 923 2063 -93 164 525
1.8398 615 1660 526 461 412 1263 2154 -513
1.8340 -1262 -67 -2565 285 -351 -756 -3046 1156
1.8281 -2622 2660 -992 -644 591 536 -2772 -1000
1.8223 1150 -1226 -1637 -771 632 1295 2656 -988
1.8164 -567 733 -20 -4491 -952 -1588 -664 60
1.8105 -1139 547 2653 -938 -1111 -58 1081 -1430
1.8047 -493 13 -488 4462 1618 36 447 -15
1.7988 -107 737 -87 -1695 615 -1043 -1055 -1573
1.7930 1049 -2620 -548 -70 -1613 89 -1461 -431
1.7871 1538 -2323 3357 -829 -397 224 1516 40
1.7812 914 164 1137 -1974 1266 -1965 -916 250
1.7754 -1245 -1390 -1820 -745 -1883 239 -738 -184
1.7695 -140 -1854 -2792 -1413 -692 -1392 -1294 -698
1.7637 -2025 -355 905 -1056 633 -2654 -642 261
1.7578 1755 -366 -2621 -2708 -485 2116 -771 -2087
1.7520 -95 1540 117 -546 1377 -1258 1410 -981
1.7461 -1639 -994 -451 397 -2130 594 -628 -1417
1.7402 920 -697 329 -1375 -302 -1506 2068 -2227
1.7344 615 1120 -907 96 -3879 1892 -173 -1066
1.7285 674 -174 -1311 1463 -1270 1782 -1201 -2270
1.7227 -1458 375 -1354 21 -152 1222 -1709 -1932
1.7168 1040 -527 -1168 -1064 -5293 1015 444 1800
1.7109 -2277 -974 -409 901 273 2150 359 -425
1.7051 -2 -2513 -900 270 2137 277 508 -1058
1.6992 567 -2416 466 -3796 71 -128 1074 1296
1.6934 29 564 -1062 2670 -2157 2073 -772 968
1.6875 -486 229 493 -2740 -2962 -781 -1499 -1047
1.6816 116 -1403 -1511 -143 -383 -666 -662 -3881
1.6758 4254 1299 -1369 -1585 1573 305 -1424 1286
1.6699 -1701 833 -1378 -595 -945 -2482 -1333 1584
1.6641 -304 148 1632 5800 1625 -1788 793 -491
1.6582 -118 -147 -1761 934 -610 1029 2948 1450
1.6523 686 -1261 1315 1408 540 -218 -2681 2553
1.6465 -1596 -1351 72 214 2573 29 -1461 -2130
1.6406 286 861 -233 -1312 1300 2139 -560 1720
1.6348 606 87 287 -1698 1806 -2534 -1389 346
1.6289 2024 779 2674 -310 820 935 1721 -695
1.6230 -1034 -547 -899 -1202 -134 63 -1316 -3097
1.6172 -1262 199 -522 934 1636 -1429 -3163 -2351
1.6113 -1044 -834 571 263 537 -778 -1396 -691
1.6055 -3166 -1125 945 1913 1497 1156 92 571
1.5996 -56 -312 -2122 -68 1047 790 -412 -956
1.5938 -21 -14 -113 3819 -30 687 2391 786
1.5879 -101 63 1386 1144 836 -935 -951 34
1.5820 -3075 3564 461 1198 -919 435 142 2204
1.5762 -756 448 -404 2851 -410 1317 -2801 2525
1.5703 579 -1892 2013 -386 -1016 -728 186 1342
1.5645 249 -840 1600 997 -198 1142 -3093 500
1.5586 1113 2308 -216 -2216 -233 166 57 -1677
1.5527 3045 2494 3436 -49 -16 936 720 1072
1.5469 1056 -2061 663 645 -1532 300 396 -1536
1.5410 2589 1004 -68 1332 -178 2453 1186 786
1.5352 856 1652 1418 171 285 289 -1120 -265
1.5293 2330 1064 -1111 708 2105 -285 -2227 2248
1.5234 -1038 1222 -3142 -957 -1567 510 2116 -614
1.5176 -119 -792 -581 -696 -1331 198 -109 -238
1.5117 1573 -1892 -2693 878 1851 -928 1277 -1980
1.5059 -496 -442 21 -976 -303 -1101 935 -736
1.5000 697 213 2324 180 -2041 -3127 -2560 -324
1.4941 484 -823 1292 927 58 1354 215 1807
1.4883 465 -1032 -1511 -1451 -345 -922 1053 -1253
1.4824 -37 375 -938 -1438 2501 295 -1684 2336
1.4766 745 684 -114 1533 3262 232 651 90
1.4707 1783 -114 589 1331 -407 -983 -1656 126
1.4648 3653 2751 -2393 -3833 -2724 -2154 445 29
1.4590 738 1562 4428 -365 -223 -724 -2893 870
1.4531 2699 1426 704 -72 -207 -1101 -2101 -1008
1.4473 975 2607 26 1034 1419 35 -1938 -545
1.4414 208 -2332 -460 2911 -330 -1136 -1357 104
1.4355 -2310 -112 2642 1711 338 16 2698 -504
1.4297 -1710 -2924 -2092 -3256 -680 126 993 -590
1.4238 -1310 257 -2184 1974 -603 -954 -1757 63
1.4180 1158 -633 401 401 750 -1590 -44 4401
1.4121 1216 -69 76 -2109 2212 -201 324 -1332
1.4062 3148 -2631 -2404 -1180 -1059 -781 -2327 -1821
1.4004 -1790 -3188 -473 -292 97 -394 -427 -1289
1.3945 535 -24 433 -2036 -695 1436 78 1406
1.3887 129 2075 3452 -1927 -2631 -3517 3520 -778
1.3828 -2722 -108 -45 -219 1309 -954 -951 461
1.3770 243 -1780 -963 -592 657 -560 257 -824
1.3711 -602 926 1231 2519 -104 714 176 -2105
1.3652 2561 -711 2009 272 976 1301 1218 -56
1.3594 -2047 -779 -992 512 894 2146 389 -911
1.3535 2125 161 -1878 -1161 2248 3201 1044 -1508
1.3477 1914 -1233 40 -704 -483 -60 999 1271
1.3418 1154 -1088 732 -103 -536 410 -607 966
1.3359 -319 236 1939 -1569 653 219 2200 1363
1.3301 -1797 803 -2549 1279 -2114 711 599 -316
1.3242 2426 2411 -219 -1068 -132 224 987 1353
1.3184 -1776 1369 -510 -1782 1691 -644 -319 2026
1.3125 -2413 889 -1768 -967 1931 1961 1367 -467
1.3066 1066 -1109 -3284 -677 -583 778 -731 281
1.3008 -317 564 -788 2157 -1201 3182 743 1495
1.2949 383 3085 14 -340 -334 313 2819 1007
1.2891 -4387 1817 326 -2363 -307 -1259 1 630
1.2832 259 3687 962 -597 70 85 881 130
1.2773 3102 -143 -554 -438 -1435 1543 1819 761
1.2715 1349 -1913 384 -2824 10 283 -1183 4408
1.2656 965 1150 1808 1419 -2329 294 1037 -119
1.2598 735 543 -19 833 282 1066 -527 248
1.2539 2321 -1453 -387 -1796 -1034 -751 2456 1741
1.2480 356 -1916 -1082 -961 2153 -408 -1791 1271
1.2422 -1711 -1994 -4849 -464 583 -315 437 2344
1.2363 -733 611 -128 -1361 1035 -535 1741 1157
1.2305 734 -735 2150 -906 -2293 224 -398 -1993
1.2246 -1980 -1517 511 -134 622 -2126 -1829 1482
1.2188 2127 1045 -163 228 -1352 -1979 563 2626
1.2129 -1037 1444 -945 3250 -501 -1870 -265 202
1.2070 -1989 -2112 4501 -818 -2509 -520 -1743 2055
1.2012 -1641 1365 1927 1069 -1076 47 -64 1028
1.1953 1327 -955 -4533 591 -847 2218 421 250
1.1895 -548 296 -2329 173 1333 -390 -594 -2723
1.1836 -1472 794 -2699 -246 450 -1578 -1785 2399
1.1777 -273 -2850 -216 2566 -756 -312 2261 -303
1.1719 984 2536 550 316 7 -494 849 -569
1.1660 -1227 476 882 -495 -2490 888 549 -20
1.1602 23 638 -2790 -756 574 -2874 -1023 614
1.1543 150 -3410 1097 1010 -1520 -1383 -2846 866
1.1484 -203 260 -1473 1396 -285 1385 155 1303
1.1426 754 781 1373 -1644 1315 -1839 -2750 631
1.1367 -2150 417 283 2267 -1121 -95 806 -1433
1.1309 -2186 -688 2198 -1660 -1332 1091 1685 124
1.1250 -4569 1021 -1408 -745 1168 815 -1035 -719
1.1191 971 -1680 -67 -1182 -1303 56 -769 -1936
1.1133 -986 45 68 -1515 -120 1999 431 -503
1.1074 -1397 -298 -422 1610 -300 -135 2167 -1735
1.1016 55 -288 -830 410 -686 -767 0 -939
1.0957 849 2306 -192 2494 -31 -241 -753 -264
1.0898 990 -1775 32 396 -1398 1369 -628 1647
1.0840 332 -1800 1318 -803 2125 -516 1461 940
1.0781 -97 933 1592 1463 -898 -1099 -2924 1763
1.0723 1065 676 840 3965 1239 -837 -20 911
1.0664 1302 -1019 1319 -801 -352 -1905 -1079 -1784
1.0605 -1206 1677 -263 -4533 -969 1743 27 -1114
1.0547 -1429 -839 -1830 -1174 -1844 -2714 250 113
1.0488 1416 -1593 290 -2456 1491 333 -1635 1625
1.0430 1292 2250 -1157 -963 598 1215 291 860
1.0371 -680 665 556 1560 -396 1528 29 1483
1.0312 -1536 1452 423 -2327 2642 -3821 -647 1569
1.0254 -1830 -1678 45 1158 1019 1495 -983 749
1.0195 557 -22 -937 -168 -249 -2454 950 370
1.0137 1382 763 -1889 -1137 521 -350 200 1352
1.0078 -672 -1242 735 -47 1379 3275 -1183 353
1.0020 -69 1173 -135 -1247 247 124 1082 1079
0.9961 2621 -1935 527 -1172 1754 1583 1403 -332
0.9902 986 -749 1326 1278 -681 -390 -913 -325
0.9844 -20 2173 -395 -2629 76 -1124 1032 3204
0.9785 156 -2087 1072 -919 1459 881 -1572 1085
0.9727 966 -302 1157 -1435 -2124 75 -538 139
0.9668 -1776 825 849 -1032 -668 553 -1713 370
0.9609 2032 135 -1704 2010 -334 52 214 622
0.9551 727 826 764 -1656 -477 629 1071 1434
0.9492 -913 -631 2634 -1014 436 662 2737 -1834
0.9434 -28 -407 525 978 1046 -210 2549 -770
0.9375 -728 -1912 2853 1285 1168 -1290 1793 1194
0.9316 432 -573 1685 578 1410 -233 247 1850
0.9258 1931 -909 -2371 1136 1089 -1412 949 522
0.9199 937 -1317 -2190 439 715 667 34 -130
0.9141 -1422 -3408 -431 -1253 -894 2013 1792 -3338
0.9082 690 -949 -1091 3990 -2885 634 558 692
0.9023 307 850 -330 1999 -529 -1889 -503 -1923
0.8965 -605 1260 828 -1873 -1015 -821 39 -2353
0.8906 2545 382 -3247 590 -301 -2290 -1223 -919
0.8848 1126 -1681 724 1786 847 -1811 -788 -1801
0.8789 478 2049 -1204 1570 -326 408 2317 -948
0.8730 -2412 515 488 -2183 616 -199 916 3330
0.8672 -630 1195 1965 318 408 -3243 3354 -947
0.8613 -1963 2408 1636 2833 -589 -671 -165 681
0.8555 -889 1025 1069 1750 -421 -201 -299 -1365
0.8496 -678 -2434 -182 -1266 -271 1683 1669 -2853
0.8438 -2347 -1095 1077 -568 434 -1660 163 129
0.8379 -32 -893 2403 260 181 -1417 1013 -452
0.8320 -1164 -1837 1101 -2963 1524 -1458 -1962 -1234
0.8262 574 -1196 -1173 -2073 -613 -982 -575 -162
0.8203 -358 -214 1963 2158 -636 -53 -597 1480
0.8145 -273 724 2813 -377 3516 -1853 -958 -226
0.8086 -2770 -241 -1293 -1189 -722 56 -1692 -28
0.8027 -2017 -126 -701 -1139 1391 968 -687 -3232
0.7969 1686 495 -1076 298 -779 719 -1219 -2656
0.7910 -2621 -700 3587 1017 1699 1430 -1610 319
0.7852 173 1478 -1375 1653 1219 -1521 2665 279
0.7793 -349 -259 -1450 -714 -168 1039 -1608 1693
0.7734 1844 -2635 3199 2403 71 1713 303 2760
0.7676 1076 -1665 -82 -373 -2272 198 637 -266
0.7617 2926 1367 -1094 174 701 -1425 -36 -352
0.7559 1547 686 1606 211 3600 -2153 -2296 55
0.7500 524 633 749 1836 1790 -1114 -1805 -375
0.7441 -1454 1169 901 2603 239 1213 1496 -3536
0.7383 -3266 507 -1107 3373 4258 -1031 -472 -2060
0.7324 -2037 536 711 -1407 -2708 749 286 914
0.7266 328 1342 410 1490 829 -2305 499 -1467
0.7207 232 -1047 191 -614 -2146 -85 -190 936
0.7148 -3439 -503 -3941 757 357 -1519 -134 -1206
0.7090 -844 -779 398 -308 412 -2752 -931 -1139
0.7031 -632 910 -273 1468 274 -6 1967 -930
0.6973 -1677 85 -1246 975 122 2515 66 -503
0.6914 -935 11 -1197 -1949 831 -1024 63 -1665
0.6855 345 1126 22 -887 -1041 1140 2104 21
0.6797 1313 -890 -3195 1061 1440 509 -257 4345
0.6738 -86 187 351 2339 -2346 -748 -2288 -2668
0.6680 -1831 -2054 676 -476 1080 -621 -2152 -965
0.6621 -1922 233 930 634 1249 1384 -1491 -695
0.6562 303 998 -955 -202 -876 2096 403 282
0.6504 -929 -1196 -4105 2150 1444 361 621 -78
0.6445 866 -810 150 214 -1188 2192 -2867 -740
0.6387 443 -858 2126 -1357 716 -445 -624 790
0.6328 -256 -147 -2344 -1409 2148 -1791 -251 -38
0.6270 -118 698 1762 -358 1691 1194 -2007 -699
0.6211 -1339 1294 3323 891 1616 -952 948 726
0.6152 -1468 -130 -2391 1895 -985 -15 563 47
0.6094 -277 2519 -954 -899 -105 -3216 -115 -682
0.6035 -841 -169 259 2495 329 -24 -935 368
0.5977 -2723 -1979 1503 271 1639 -1570 2947 1365
0.5918 -925 -2086 -1779 11 866 617 453 712
0.5859 -1769 2202 2733 -3420 -640 -744 1449 1072
0.5801 233 -2329 -1503 -1149 150 -194 -1111 1483
0.5742 973 2090 -484 769 609 2746 1463 687
0.5684 350 2672 2018 1104 377 1609 2245 -1822
0.5625 181 -3062 1044 -1437 -199 -442 1837 -2686
0.5566 -1266 70 603 -439 2829 -3827 -1329 -729
0.5508 1044 -505 -849 -590 1193 -2007 188 -2252
0.5449 -1175 -86 3184 -408 -1167 86 3911 687
0.5391 524 -226 -1199 190 2131 -3810 973 -1747
0.5332 58 1919 452 1735 -146 349 -332 -1042
0.5273 86 1882 -709 -1431 -499 -1544 -2744 -1239
0.5215 4030 573 -556 2263 -60 1075 -1823 -2625
0.5156 1812 -282 -57 646 -331 2983 -1398 694
0.5098 1408 -968 993 -1915 1024 1510 1515 -1943
0.5039 -671 725 -150 -735 -987 1788 1327 -638
0.4980 2267 -383 944 3237 -1431 -196 748 -592
0.4922 -516 329 -1785 -361 2657 -146 -532 3044
0.4863 399 -427 216 859 397 -2322 16 2349
0.4805 723 2069 -1317 -687 -319 -289 1140 1268
0.4746 781 -1363 -1872 -1573 -322 -2650 -250 -101
0.4688 948 1223 -1955 -531 898 260 139 1786
0.4629 -21 1562 69 -661 -1482 2243 1039 922
0.4570 -3671 3473 2125 -234 -556 40 149 -346
0.4512 377 311 -125 -2026 640 -657 -1542 1762
0.4453 -1291 -90 -1691 -985 1020 -540 -1275 1451
0.4395 -1128 791 -838 -253 -493 -1369 936 -584
0.4336 1790 -585 -656 -1798 127 958 -484 468
0.4277 2040 -595 -2795 240 -576 -1538 591 903
0.4219 1884 -1735 551 1304 -1633 1293 -1303 1449
0.4160 -227 1574 -1928 166 -947 -731 73 132
0.4102 -1219 -1582 127 -1732 805 -564 2320 1958
0.4043 1082 263 318 -131 -1277 -1173 -1621 4010
0.3984 42 -966 -479 -1556 979 16 -3018 -1064
0.3926 1380 -1433 1469 905 -670 -107 -931 -1173
0.3867 -112 -646 -813 -442 -329 2222 -2660 528
0.3809 -1773 -2401 1276 2113 934 -2374 2614 1
0.3750 -90 -176 -244 92 -2237 -1411 1604 295
0.3691 1030 -1628 -1066 -1594 -1151 -370 -2512 -1448
0.3633 -1493 -1923 -622 -1078 -1033 2636 -2384 -253
0.3574 -1349 -200 -37 -257 2255 -378 -68 529
0.3516 1223 1098 -282 48 -2187 -796 758 -1242
0.3457 -273 201 -2186 -1299 -1238 518 1841 3083
0.3398 1612 -1981 1203 -468 -449 -2685 2788 2353
0.3340 -955 715 -509 -1023 894 602 111 -880
0.3281 159 -381 302 1639 -4296 -219 -2184 1166
0.3223 -862 -983 2748 -253 -1057 872 -182 553
0.3164 -1278 899 1768 1405 447 233 879 922
0.3105 212 345 648 -1051 -3587 145 245 1818
0.3047 -1053 1253 589 -852 -2431 941 2103 -1599
0.2988 1772 49 101 916 -808 -3334 -1394 2602
0.2930 300 -3832 -1956 -623 908 -928 -440 1162
0.2871 -471 -20 -2786 969 2643 -956 1561 -1450
0.2812 2687 280 -3102 1119 -1496 3231 562 2681
0.2754 -533 277 -257 -744 -518 103 1882 -610
0.2695 1880 761 -65 -524 738 357 -2710 -1355
0.2637 -1018 -1935 1381 1061 -718 -775 1168 819
0.2578 -1439 1146 -977 612 -7 -567 -544 294
0.2520 627 256 1095 1777 -93 4156 1732 439
0.2461 921 3892 612 1640 -772 -268 -1629 -1242
0.2402 1466 859 -788 4275 -819 -1662 1963 -1181
0.2344 -1825 -1707 1417 503 196 -1508 -502 -680
0.2285 2217 -2103 3070 1494 -2431 1280 153 3983
0.2227 1102 -408 1715 -870 -2652 -259 -966 2955
0.2168 -1320 -807 728 -2135 -251 2367 767 1365
0.2109 435 1071 -435 -3647 650 841 -484 306
0.2051 202 1327 -299 1370 3203 364 -1647 -661
0.1992 1804 -1218 -745 -921 -2848 379 -1878 -2312
0.1934 -4295 91 -1272 -759 -1721 2324 1555 1191
0.1875 1038 232 -2418 1454 -1081 -1348 272 -1165
0.1816 -1912 -1432 2054 2573 -4 -1094 509 41
0.1758 2593 775 851 -636 3048 -270 -1041 -1800
0.1699 -1902 338 -2879 -1836 -589 -1436 1696 232
0.1641 -1817 1046 -182 163 -5083 -528 -746 1745
0.1582 289 -810 -3748 -359 1194 -90 586 -43
0.1523 1789 1139 -1856 -1321 -845 -251 2687 -1919
0.1465 328 1436 1590 1280 -2476 -1994 1116 -997
0.1406 -2406 -951 -207 -3293 697 -582 -667 -730
0.1348 987 1380 -2132 -864 1650 -166 620 -1692
0.1289 -1351 2999 -406 1456 -2705 1637 1354 1275
0.1230 2209 1573 850 -2063 -892 -731 -2261 749
0.1172 -266 344 -1596 415 -175 1544 -1116 314
0.1113 -3024 775 -2 956 -252 -2187 -652 7
0.1055 -3038 -2292 -1753 1154 3203 -146 958 161
0.0996 979 1863 -2571 -622 -1237 1217 -752 905
0.0938 1091 -739 -464 -869 331 2029 1624 1411
0.0879 -3432 -2749 -2044 -1360 540 228 4029 -777
0.0820 -581 -192 -4202 356 654 1119 884 -584
0.0762 1100 1053 -1290 -1248 -3590 -658 -572 2443
0.0703 19 -664 -810 -127 -4398 -1594 229 1461
0.0645 706 354 -1115 -1768 -2951 21 124 19
0.0586 -874 -480 -433 -355 -411 -1320 -2042 760
0.0527 602 1630 1106 -163 -2058 328 1445 15
0.0469 1773 1346 155 261 -1230 -217 -996 -1462
0.0410 285 3003 -150 2508 499 -583 2919 969
0.0352 159 -700 665 5021 125 2797 1011 966
0.0293 -738 -15 -1878 -499 -898 1275 -1954 -542
0.0234 1510 -1185 1417 -2964 -1454 -630 -261 -507
0.0176 1398 654 968 2297 -1330 -1418 414 -627
0.0117 2090 -1439 -314 -1280 567 968 -1309 2334
0.0059 301 -816 3765 -1254 -134 -2451 452 -682
##END=
