##TITLE=Overlapping signals
##JCAMP-DX=4.24
##DATA TYPE=NMR SPECTRUM
##ORIGIN=NMR Analyzer teaching set
##OWNER=public domain
##.OBSERVE FREQUENCY=400.0000
##.OBSERVE NUCLEUS=^1H
##.SOLVENT NAME=CDCl3
##XUNITS=PPM
##YUNITS=ARBITRARY UNITS
##FIRSTX=12.000000
##LASTX=0.000732
##NPOINTS=16384
##XFACTOR=1.0
##YFACTOR=2.89928549E-02
##FIRSTY=5.614363E+01
##XYDATA=(X++(Y..Y))
12.0000 1936 2178 103 -1143 -1635 51 -1530 -2152
11.9941 303 204 824 -1367 11 -93 -2255 811
11.9883 485 3588 308 -213 1853 302 1368 -545
11.9824 331 1541 1048 197 -1620 672 119 1085
11.9766 328 1636 -74 307 1004 -1627 -599 -746
11.9707 2975 -136 982 933 -418 -2323 1451 -607
11.9648 1081 -1955 -653 1889 2151 -1950 -1996 -63
11.9590 1096 245 459 -1480 884 1679 -650 -2147
11.9531 -1135 1147 -2597 -134 -1483 -193 -363 28
11.9473 2256 635 2005 -208 -716 572 -4251 -56
11.9414 244 -1849 701 -835 -3686 -316 -1465 -777
11.9355 -225 1881 159 -39 588 -2715 1864 -1612
11.9297 663 -1687 -1461 -591 2848 1051 -903 -423
11.9238 -1724 -47 -856 1087 -2032 -498 -1259 -1074
11.9180 1071 193 882 1788 1729 -2054 810 -2639
11.9121 -92 2883 -287 -550 259 31 44 -1132
11.9062 1627 1338 -314 476 992 1553 593 1047
11.9004 -391 -1600 -739 1533 1471 223 -847 466
11.8945 2500 2036 -1022 -61 -2174 -1700 286 41
11.8887 1451 1906 1257 1984 -817 -1690 755 4023
11.8828 539 -1724 368 2143 -1548 1209 -913 1914
11.8770 1182 460 3005 -610 -1025 2787 -1311 3303
11.8711 -56 -1551 1 200 306 -284 1626 -3477
11.8652 -828 -389 2734 -2986 -506 -1711 -993 965
11.8594 621 2165 -896 407 1764 1359 -500 1697
11.8535 -1382 2710 236 -165 410 1278 2617 -209
11.8477 -547 884 -1304 -2541 1258 -565 1695 -1536
11.8418 -4341 429 236 2405 793 468 884 -547
11.8359 120 -2024 783 -1204 -665 1054 1378 -1507
11.8301 3010 -884 1257 1431 340 262 2700 1340
11.8242 672 -2733 -1117 1748 295 -1429 -960 -455
11.8184 1033 585 1500 -1222 1483 -749 -444 2604
11.8125 115 -205 -311 -573 2344 2069 1080 280
11.8066 1568 -112 683 607 138 2477 2638 1990
11.8008 -2866 2759 1058 -672 -32 1712 1767 1287
11.7949 215 58 1252 -133 -1343 -931 -205 503
11.7891 3400 -2051 720 -133 456 2035 1867 -232
11.7832 -832 -2041 -103 1875 -394 1060 1067 600
11.7773 1631 -166 -1240 -1755 1395 -539 -462 1256
11.7715 -1180 2660 1004 -786 -946 1627 -1772 -958
11.7656 14 308 27 585 -542 -178 1902 973
11.7598 -670 2577 -2983 131 1007 1463 172 -573
11.7539 883 -286 716 -4282 577 -1182 1416 1126
11.7480 1098 -603 656 -509 327 -199 -1303 2970
11.7422 1090 -3081 1345 -2088 -344 -869 -798 366
11.7363 -484 -2169 -5 552 2659 -618 -1780 -566
11.7305 984 -1322 -1078 836 -12 337 -939 -1235
11.7246 -482 -227 -497 651 825 827 723 -1325
11.7188 -1675 1207 23 187 -1736 -313 -952 -1292
11.7129 -941 -2237 132 1754 -1058 146 -1634 1012
11.7070 2800 -1847 -337 2141 556 177 -3061 -221
11.7012 1382 2159 966 -866 -1026 -2725 -1609 1688
11.6953 -168 -2004 1984 -2505 1896 -480 514 1024
11.6895 398 1912 28 -486 -989 -2163 -1038 1478
11.6836 1243 2092 4097 1075 756 -1968 -360 3299
11.6777 799 -203 469 -2840 -1247 -1960 -3203 1158
11.6719 1453 -261 524 -1507 684 1149 2307 2346
11.6660 736 -186 -1235 -904 930 853 32 2501
11.6602 978 29 -282 120 -1420 -1466 526 -873
11.6543 -402 1836 -285 1975 -8 2280 701 -2634
11.6484 1862 -306 -2943 175 238 -1932 -907 826
11.6426 2123 1716 1839 1686 -3723 -1086 285 -4029
11.6367 1160 1342 -1159 -566 -1405 -22 -56 -7
11.6309 -1528 586 -507 1431 474 -2222 -2160 109
11.6250 -723 709 1214 34 -2524 -1788 863 -1571
11.6191 1668 -132 784 -1322 -145 -4438 -308 866
11.6133 -1341 -1260 -75 102 -1208 1018 -2464 1677
11.6074 -2101 -1231 2003 -1488 -2476 118 -1375 -1671
11.6016 -1048 -1111 -1458 -1539 2423 -1004 1462 -2104
11.5957 821 -1872 -684 959 -792 -2943 -824 -232
11.5898 865 -1493 -443 98 -2470 -156 -1238 661
11.5840 -161 -245 -3618 -159 -551 -1411 -761 -1892
11.5781 266 994 901 -775 2525 1286 -1418 -204
11.5723 -2440 -173 1074 1908 -623 -2679 -250 2047
11.5664 220 1918 1246 2345 903 -992 673 3811
11.5605 -772 -2780 3161 618 -936 -906 -2306 1061
11.5547 219 -945 -630 -637 1606 -269 2075 -1252
11.5488 -914 -719 -804 -132 1543 1820 -1604 1922
11.5430 147 2388 -247 -1251 1189 940 -683 38
11.5371 201 471 -2568 -1804 88 395 -782 -2636
11.5312 2020 -458 -1566 2397 1704 1562 1257 858
11.5254 -1456 50 538 955 718 -1508 -903 -494
11.5195 -289 -1306 -2731 -1820 466 -12 875 -2827
11.5137 -620 1341 -2939 -1620 -2494 1822 51 -856
11.5078 229 -131 1362 1759 1377 520 1150 1224
11.5020 1753 -2751 523 122 244 -369 -106 746
11.4961 303 197 -1605 -1880 -1117 -2670 -770 -1269
11.4902 -2691 -2904 -700 -865 3266 1300 -1168 -745
11.4844 -1512 -1177 -522 -69 -930 1238 971 2940
11.4785 -1960 1019 -557 -2405 -448 -2460 -36 4112
11.4727 1963 2736 1797 -2318 625 219 656 -1553
11.4668 -2969 3162 1794 466 -732 279 -1856 1445
11.4609 252 -221 -640 -95 203 -599 1448 320
11.4551 -137 -1288 1832 1951 1039 -2761 -518 1494
11.4492 60 1919 -653 1200 792 -3666 -604 -351
11.4434 -936 -1335 2390 -175 1189 -2004 -3113 -705
11.4375 616 -1080 801 1209 -668 -85 -1102 1625
11.4316 2658 750 -753 -1054 -413 1340 -1131 2224
11.4258 -1829 -7 1981 2681 -606 1194 3801 1758
11.4199 -3283 427 3570 -1738 1375 -3127 2387 -1260
11.4141 1217 1372 -4169 -2142 500 -2280 -25 -1416
11.4082 2020 -759 -1368 969 1839 -230 425 744
11.4023 -736 -1777 804 -525 -2048 1288 657 217
11.3965 -1126 -329 920 732 -1233 -1349 519 281
11.3906 1278 -1733 1387 2651 1429 202 1365 -1926
11.3848 -660 3095 -2447 -1732 1240 -980 -843 -1675
11.3789 2529 -908 -411 -2715 1160 -8 753 2376
11.3730 235 -1783 -1516 129 1987 -1794 -365 -213
11.3672 991 -1332 473 1181 -52 -142 933 877
11.3613 1893 -1614 1851 -338 -1704 -825 -1846 -296
11.3555 1557 -3370 -1769 1158 -446 1194 -1987 -74
11.3496 -3905 -1265 1115 1829 2453 -79 -1312 -574
11.3438 -2873 2037 1772 -1360 2753 -2025 845 -1208
11.3379 -2603 599 -1733 1796 -1345 163 -713 208
11.3320 -943 1236 921 110 -185 2963 -1039 -654
11.3262 1164 -11 -2447 -208 -571 -1487 297 -1700
11.3203 -370 -1698 2348 -419 669 434 1064 -221
11.3145 1136 193 -3665 474 -1933 1430 333 -554
11.3086 -3780 -3203 -1761 -564 -2065 2982 693 -128
11.3027 -1474 -505 -351 -659 -111 1213 -2637 344
11.2969 1658 -2049 -279 -569 -1711 1430 -485 1723
11.2910 622 -414 436 -559 -2457 2139 555 1740
11.2852 -2713 1576 1242 -56 -3177 156 -997 -284
11.2793 88 -1353 -191 23 2196 -147 3533 -1769
11.2734 -200 1865 -2352 934 598 -898 -356 2326
11.2676 -668 423 654 1818 -3096 -2204 -2007 -415
11.2617 926 1253 -425 2278 -106 1042 -1135 1255
11.2559 -1074 1745 1299 2810 -632 -1738 1250 482
11.2500 -788 -2003 1205 -2920 -694 1610 -373 693
11.2441 741 896 1594 986 -557 -1841 -423 -980
11.2383 613 1851 1180 -1039 307 13 -701 1955
11.2324 928 548 -1829 -3937 -1096 1716 -317 -32
11.2266 -390 726 -8 2578 -176 -389 2137 1132
11.2207 1050 797 -53 481 811 165 -2814 2072
11.2148 -715 -848 -508 -1079 -1311 -121 1332 -438
11.2090 715 -2022 1139 -1701 1055 -1107 -896 -1879
11.2031 -1900 -330 -1458 -329 1710 -1261 -471 -146
11.1973 -924 -44 355 1569 -1086 -319 -236 1834
11.1914 -1498 261 1159 886 -1057 -1546 -2772 -797
11.1855 -377 -2241 1270 250 -354 -790 716 -424
11.1797 765 -716 1591 -2439 -1602 2706 1573 2467
11.1738 -1184 1098 1507 1378 -270 2213 629 -1938
11.1680 3702 196 1890 -1035 -1395 1330 1239 -1112
11.1621 376 -1987 -3080 1645 -1712 1120 1604 562
11.1562 2283 551 446 7 636 535 -1401 -66
11.1504 -558 4271 1846 -1179 898 -2624 88 2731
11.1445 129 1931 -547 693 567 -3289 -1198 2850
11.1387 -1243 1813 2585 -63 1512 555 -887 884
11.1328 659 -1475 -662 -2017 -500 -55 -1464 -2793
11.1270 1017 1906 -1360 114 -998 -3948 3177 440
11.1211 -2106 1909 1091 2127 1105 801 2160 -407
11.1152 365 -1624 -1713 321 354 -2374 565 1523
11.1094 -1880 -504 2578 -1269 863 1184 274 225
11.1035 857 437 230 -2208 373 -1177 2251 3333
11.0977 1676 -3221 1503 183 -1627 -1819 1596 -966
11.0918 -114 104 1419 -4010 1852 -1211 -603 933
11.0859 556 -3463 909 -224 -1541 -914 -2390 1181
11.0801 2222 -940 -700 -2181 -1054 -1524 40 2614
11.0742 1586 1473 -1452 1259 -1074 -1324 1105 -146
11.0684 3735 292 -454 1126 -1734 1027 2350 -199
11.0625 -766 1693 -1673 567 -784 456 -1174 915
11.0566 848 2639 -542 669 -2638 -1176 405 -2048
11.0508 -155 -1342 725 905 -704 991 -829 177
11.0449 789 842 896 2554 -964 -227 -2740 1315
11.0391 -1678 -887 -762 631 -418 -420 122 -497
11.0332 -28 -1467 -821 -1822 1290 1360 1002 507
11.0273 -900 839 -2318 -3748 -1777 2250 374 2336
11.0215 -1064 1524 2394 1492 434 1625 -679 2654
11.0156 -1726 -1133 40 -1144 2637 1014 -1093 2520
11.0098 2042 -563 2351 1785 -748 -832 473 1730
11.0039 2363 2263 -720 -2672 -2527 2273 1593 1782
10.9980 2 134 736 699 129 -1451 -2050 239
10.9922 -231 2133 -1595 -2975 -2943 -47 2522 -511
10.9863 -1046 574 2319 1636 1325 1403 -429 136
10.9805 627 2728 -3303 -814 565 -358 -187 -392
10.9746 -1426 763 1951 -534 666 1672 -978 -130
10.9688 -1949 2378 2587 -296 3004 1292 -2741 740
10.9629 383 766 1031 -675 1711 479 2852 -163
10.9570 -3756 2876 839 -2753 -906 -1187 1410 -939
10.9512 1750 -753 1448 -910 -1786 894 -344 785
10.9453 -2472 -1552 -515 2963 606 -2517 -4720 2796
10.9395 505 -1894 1488 1288 3228 298 -739 1236
10.9336 -2023 -665 -1494 -852 -1925 -2167 -1660 592
10.9277 52 -109 714 1133 724 3117 434 582
10.9219 -727 1638 2155 -4451 1234 -1642 535 134
10.9160 -1886 -2027 -379 3946 -1856 -604 -429 -395
10.9102 1695 3095 -61 628 -482 2371 -76 1035
10.9043 -285 1698 -93 -1260 2875 -2916 266 -527
10.8984 -1362 3143 516 -614 -1328 513 1 -356
10.8926 -992 2296 334 -275 -1876 -1161 1107 -1123
10.8867 987 -161 601 529 -649 -391 -97 993
10.8809 3620 1315 -1961 3338 -170 -1035 194 -78
10.8750 388 -38 -33 1907 2555 154 2390 1409
10.8691 1801 409 319 1205 -1436 93 -1693 1378
10.8633 327 901 -498 -1147 1450 -640 -314 59
10.8574 707 98 -1555 -1568 1532 -466 -355 -1322
10.8516 1407 710 -804 -2579 2713 -836 -1741 -731
10.8457 -1703 -5 -824 -1773 1030 -1276 -2781 517
10.8398 -817 -1626 -2496 -1047 -901 -719 -749 1906
10.8340 1598 478 855 -678 -2178 806 2074 -1038
10.8281 -1032 -1043 -1979 831 -1622 2072 2507 136
10.8223 -57 -1275 1364 135 -2228 -1395 711 -740
10.8164 667 379 2162 -142 1597 1666 1992 -510
10.8105 427 3827 -285 -901 188 -1761 -1273 -635
10.8047 -419 1515 -1639 -269 400 -432 1120 3360
10.7988 -1614 -1297 -762 -809 -806 640 2624 3704
10.7930 -113 -3075 2349 28 -613 1655 -164 -330
10.7871 -1305 1390 1275 -1271 -834 1867 -1072 -619
10.7812 -1145 -352 1298 99 1502 909 -3025 -15
10.7754 -26 -2489 1181 -69 -750 786 1451 1091
10.7695 -782 -49 3682 -1938 116 57 2260 928
10.7637 340 -437 1868 112 -138 260 1039 64
10.7578 394 1201 -1077 -350 114 1034 847 -715
10.7520 -1542 -554 -743 1344 962 103 -1610 -1952
10.7461 192 924 572 -373 863 -2949 1728 2264
10.7402 269 368 -304 1350 -1365 -858 605 -2129
10.7344 746 694 -11 -737 2628 -797 239 1217
10.7285 -14 1580 10 391 -4 995 -963 1344
10.7227 1558 -1557 -2237 -1983 -1189 1041 105 2831
10.7168 2374 -2291 -576 -445 2417 1183 1398 -1212
10.7109 3054 -1648 50 -1436 -1338 386 -1338 1037
10.7051 786 91 963 1696 1644 -1700 987 1347
10.6992 -556 -573 1819 998 205 2158 1405 2609
10.6934 -574 1484 -2969 -959 2513 -1445 -220 -513
10.6875 725 1719 2412 -218 512 1321 1744 -410
10.6816 2041 -2149 425 -2058 -685 -1178 2665 2516
10.6758 1175 250 -2924 -2541 287 1102 778 -1083
10.6699 -1154 819 3414 1102 -49 -159 671 471
10.6641 -2136 2322 691 843 -668 1669 1526 -1080
10.6582 1548 -1060 -2759 1265 -1481 -821 -1395 -102
10.6523 -530 248 714 2453 692 771 744 1227
10.6465 1358 440 -1735 -1429 438 -467 -606 -772
10.6406 -1069 1649 1181 -1896 292 -19 -685 1578
10.6348 487 119 -1278 1434 379 432 -1027 2248
10.6289 -4632 -2076 -2484 -1928 -1533 -752 -491 300
10.6230 2037 855 194 -220 575 1218 -1090 2632
10.6172 -12 1290 -3663 295 -579 2051 1528 487
10.6113 950 -456 -1348 1723 -1793 -779 -1739 -1411
10.6055 -608 1262 -1447 1107 -2779 -1240 -1292 1005
10.5996 1990 -3459 116 2435 45 2474 1740 436
10.5938 -2098 -983 2324 -1323 -1615 -671 1904 166
10.5879 -2276 -933 1022 1732 2296 777 708 -1442
10.5820 -836 -2036 -205 617 79 -1401 865 1384
10.5762 1863 -3223 -3612 -1622 814 1552 1102 66
10.5703 383 -360 -1004 -1470 4762 -364 844 826
10.5645 1349 -64 1407 3004 -946 -857 -1485 -523
10.5586 -1828 504 1010 1825 1938 -550 293 -1181
10.5527 104 149 758 -80 -1587 1506 -193 -2064
10.5469 -2552 1030 -2657 1018 2272 807 1225 861
10.5410 -883 339 -2780 934 968 231 1629 -242
10.5352 -2541 2124 158 -906 -765 -538 316 -1880
10.5293 173 -516 983 -466 958 -1303 540 -438
10.5234 1599 567 1529 -702 -889 -34 -1523 -396
10.5176 1887 -1588 -836 127 2439 3181 -813 -680
10.5117 400 -963 -2937 884 565 431 822 287
10.5059 -924 946 -39 257 -1615 140 -65 -1265
10.5000 -1127 -627 26 -920 -1618 117 -1794 486
10.4941 -1267 -286 1665 -3290 -1978 -764 -209 -1291
10.4883 -1390 -908 -1486 155 -1017 -229 65 1010
10.4824 -925 -621 631 -3189 90 -1328 1298 -478
10.4766 -1293 1551 -810 -1294 680 -2855 -249 1047
10.4707 -1849 1404 -442 -808 -2465 2089 1987 -501
10.4648 549 -2812 105 554 -1123 -944 -297 -1205
10.4590 -2487 1108 1288 858 1067 1530 -470 -4395
10.4531 27 -829 -1722 732 -1502 -1766 3541 -589
10.4473 235 860 880 -158 752 -142 -673 -394
10.4414 911 1016 642 -2239 -326 752 -577 729
10.4355 174 1760 -3377 249 1573 998 -756 -321
10.4297 -514 637 1099 -852 1573 684 -3074 -560
10.4238 -188 -992 135 -74 -135 -408 421 -872
10.4180 814 -2620 106 -709 -563 423 -932 -4702
10.4121 -2149 -301 -406 -713 -952 1013 15 -1536
10.4062 -1270 1405 160 539 32 316 -795 -1441
10.4004 -1435 -1291 2607 929 87 -159 -2375 1127
10.3945 -2555 1516 -736 -2067 2172 -1446 -393 -229
10.3887 -2190 656 -1959 -280 -1673 2344 70 2151
10.3828 -776 338 795 104 -394 1657 560 103
10.3770 1217 -4017 -1525 719 -532 -398 -2171 -532
10.3711 2032 -730 -1472 -420 1562 -952 -2408 352
10.3652 -509 222 -2512 -1632 -451 503 2580 2022
10.3594 1684 1414 1542 949 940 -572 -718 1939
10.3535 -1713 -848 -328 281 -989 -671 -1162 -1096
10.3477 -570 4938 -1728 3605 -1827 268 -101 930
10.3418 -441 -1583 -810 -477 -2186 -128 145 -2210
10.3359 -1945 1185 -1393 -968 -867 -928 792 337
10.3301 3133 -531 550 -1019 1412 -2237 -1223 -317
10.3242 4117 3272 2936 -13 -2278 821 1596 -990
10.3184 2909 2914 -2490 -594 -385 -373 -217 65
10.3125 -373 3820 -687 -1799 1748 1486 -1676 -1305
10.3066 -1291 -3176 -1941 679 -1956 -363 -406 -865
10.3008 711 265 1851 516 -883 2483 459 738
10.2949 441 -477 -1374 1843 -1082 -444 1315 1485
10.2891 44 2964 -316 3484 2052 291 -334 1677
10.2832 -2507 1070 1024 2364 2096 463 719 -1412
10.2773 829 -1131 -2012 2617 2652 -150 471 3564
10.2715 -1993 2266 -449 955 -102 2306 1815 -223
10.2656 1791 1432 2113 -1548 1308 25 397 -2290
10.2598 3216 -69 694 -2181 -283 283 199 -1638
10.2539 537 -589 1357 -1679 1770 -1520 -1654 716
10.2480 921 658 -827 -416 -1347 1682 -2621 -1772
10.2422 -1730 786 -2209 1196 -2537 -2559 503 618
10.2363 -538 2013 -639 -760 -261 2010 -245 2822
10.2305 2065 1637 1369 1957 730 -3513 283 -183
10.2246 -1738 -2784 220 -1628 12 -1217 512 -1438
10.2188 361 -55 -677 -383 413 -3952 -2865 155
10.2129 48 367 516 -1447 1947 1140 520 -355
10.2070 -1054 -879 575 164 1243 371 -653 1751
10.2012 -2113 -2002 579 -712 -2124 -2196 11 2050
10.1953 2133 -146 -378 -1225 2838 -123 -551 1151
10.1895 1728 62 1851 -1868 680 903 626 997
10.1836 275 872 -3131 -1080 1288 -1645 -1315 3011
10.1777 112 419 572 2601 -384 -1223 413 2109
10.1719 -2650 -182 -580 219 993 476 -2340 -340
10.1660 -187 -62 1599 -473 -939 -235 54 1051
10.1602 -2565 -2025 -113 1396 -75 365 2619 183
10.1543 448 -52 1468 775 -367 1075 682 -707
10.1484 1122 3078 -1623 -1586 -158 -288 370 -39
10.1426 252 1697 1928 -3114 828 56 821 92
10.1367 551 -315 -947 -230 1225 71 -95 1885
10.1309 1304 -1303 -1176 -241 741 1561 -2530 2008
10.1250 99 341 1253 429 304 1491 1779 -1644
10.1191 -2349 -1558 409 -368 -286 -727 -1252 804
10.1133 -50 459 816 2217 3183 -861 1939 290
10.1074 673 1706 -862 -176 1472 912 2733 945
10.1016 210 -156 911 -2710 1945 504 -909 157
10.0957 823 -1750 1351 -3232 2183 -405 390 -378
10.0898 -882 1461 -1421 -99 821 -1798 937 -1322
10.0840 1325 -492 1949 -72 -1487 1467 1807 1427
10.0781 -2186 -1582 1402 728 -444 -263 266 -3201
10.0723 -1784 -1800 1564 -554 -3121 -223 -525 -1071
10.0664 -2157 -1354 453 -645 1150 1996 -503 -2360
10.0605 -1462 111 1126 -272 -66 339 1824 1075
10.0547 -539 -889 -46 -904 -1469 1550 293 -1612
10.0488 619 -1572 -1452 -2424 -1770 -729 372 -150
10.0430 417 59 -685 1740 -1663 -1520 3047 338
10.0371 319 3926 -1629 2398 -64 -303 -1485 -102
10.0312 1101 -34 -722 580 1876 66 -640 -601
10.0254 567 -895 2084 -849 1596 -278 1090 -1727
10.0195 -325 -1494 -1180 -74 -1766 2933 2510 1351
10.0137 12 -880 -2571 1216 -1772 -87 -910 -10
10.0078 2500 -134 -295 1363 -786 -2913 -1157 -380
10.0020 -1177 1471 1781 -1521 58 310 -632 -968
9.9961 646 -609 2706 -51 8 279 324 -644
9.9902 865 1219 325 604 -2073 -654 126 -494
9.9844 1621 549 -41 -1011 -587 -398 2465 -1802
9.9785 1384 -568 2415 1385 -1286 513 -2105 1051
9.9727 -208 -1578 -77 865 3643 1264 560 -102
9.9668 -3354 -2214 -3529 -1817 1474 1905 414 -610
9.9609 1040 3496 232 2078 2023 -1233 195 -1239
9.9551 491 -651 -1394 1035 -101 -366 1292 667
9.9492 1850 2741 -1865 706 -2645 1342 2889 -1440
9.9434 1812 1018 577 -3291 -1574 -572 98 184
9.9375 1211 195 -270 -1483 -1140 -298 3340 -551
9.9316 -118 1484 1199 938 143 2425 -864 2121
9.9258 2330 403 -796 -932 408 -2959 1930 -1277
9.9199 -1833 755 111 -1291 1973 -1752 -855 -2365
9.9141 2619 881 -2145 765 -907 -1265 -252 -2938
9.9082 294 3 2243 -1308 -2085 -1425 -871 1258
9.9023 3347 882 650 -1680 -2112 -1805 993 1699
9.8965 -321 -1943 1155 -155 -1107 -2342 -2743 2269
9.8906 -706 456 732 1329 3332 -260 1800 -1293
9.8848 -2138 -32 -2934 -2278 -1157 945 -339 -2672
9.8789 -46 -870 -780 -871 -161 1152 769 55
9.8730 -1249 -2345 2857 2273 -2547 571 605 171
9.8672 280 -608 2149 525 1508 435 307 -664
9.8613 1823 -2738 2058 -310 396 -783 -2723 -1362
9.8555 624 -675 731 -1317 -2659 -197 -642 -1147
9.8496 2155 -2713 186 -434 1968 200 533 388
9.8438 337 -326 -236 1269 3325 -1481 372 -1610
9.8379 2877 2610 370 2132 332 -1749 2682 -2324
9.8320 -1558 1773 1334 904 -551 -1048 -1757 1824
9.8262 836 3304 688 838 -803 -701 771 -1181
9.8203 1569 1613 -1870 937 391 334 -494 1746
9.8145 336 987 589 -944 -1726 2505 2594 -20
9.8086 1634 1986 2281 1461 -158 1055 -729 386
9.8027 -1379 -2406 -1331 -2305 647 1029 710 -1124
9.7969 -23 -1927 641 870 2879 -1485 -208 -139
9.7910 3530 386 713 -2200 -183 3291 2067 1029
9.7852 -532 -1322 387 -884 3404 -806 -698 1152
9.7793 397 -1307 -1939 -1200 2380 -833 -212 1396
9.7734 2428 1245 612 -869 -1347 256 -61 372
9.7676 -3032 -2048 1211 2225 282 -1824 924 -1270
9.7617 -393 -374 1159 1648 946 -1409 1615 -695
9.7559 -2203 1419 2848 -1529 -548 -865 -677 1801
9.7500 1246 299 284 -1094 -748 -1010 919 1019
9.7441 -509 1106 -1234 3134 -1554 -782 -96 1251
9.7383 427 -1274 895 1211 -1637 -3146 888 -1506
9.7324 1547 2741 1938 503 1304 -218 -1253 -169
9.7266 -606 379 -1710 -1556 164 172 90 1416
9.7207 -2156 962 -369 -34 1628 209 1351 2391
9.7148 -54 -2694 -749 -674 339 -1182 230 379
9.7090 -2870 2390 -871 -2003 -1156 1114 4693 -2969
9.7031 -987 1743 -993 98 -631 -31 452 -1449
9.6973 -1462 -2139 348 3644 1739 -127 1941 955
9.6914 -442 -933 229 -1187 -25 648 -1833 -1698
9.6855 -424 -1188 -131 493 534 1041 128 441
9.6797 -156 141 -96 13 -483 474 1233 1988
9.6738 2361 1167 -893 -1930 -2341 -446 300 1521
9.6680 153 31 -1778 1066 2815 -601 3179 1118
9.6621 -1216 961 371 569 -1781 575 1344 -1761
9.6562 738 1902 502 -1005 -290 1133 849 -132
9.6504 -941 -1035 -263 -1729 593 2933 -292 -57
9.6445 195 910 -375 820 -1241 -1610 -866 766
9.6387 -945 -1078 354 -2962 -658 -3469 -913 2793
9.6328 -2443 1671 -896 -813 -543 2922 -843 106
9.6270 -710 -384 1096 453 177 -996 297 -309
9.6211 -56 135 -772 -1902 608 -2678 1334 -846
9.6152 -1358 1544 -964 103 -1347 631 488 -380
9.6094 -324 -2306 1684 -985 -197 -723 360 -333
9.6035 -555 -444 315 2286 -1684 1541 142 678
9.5977 -1002 1478 1121 -2784 -2574 2499 -866 -354
9.5918 -2247 -35 78 -738 1903 -312 1246 55
9.5859 265 -420 -839 2108 1679 1730 -987 -615
9.5801 233 -526 906 2408 -823 -610 -2258 1838
9.5742 271 502 -996 26 -445 -1007 787 1938
9.5684 1848 -458 4551 -960 36 -1943 -405 455
9.5625 -911 -150 -1443 -636 -1824 -669 -3179 -1249
9.5566 -691 -232 1862 -1622 -1078 1218 -1366 -553
9.5508 -2553 -4633 3189 1100 3003 -170 -2138 522
9.5449 -1401 319 576 853 -1192 192 553 2003
9.5391 -561 2793 933 583 -909 494 925 -1475
9.5332 956 401 -392 -1206 -298 1001 2538 216
9.5273 -496 1016 1423 1111 -239 -3611 273 -97
9.5215 -1711 61 -1489 -464 1827 -868 -3523 1526
9.5156 -173 -4 -2695 -2765 -555 -804 231 -326
9.5098 480 -644 528 -773 710 927 -2285 -40
9.5039 -556 -27 2726 -917 -260 327 -3227 2096
9.4980 893 -243 1362 3910 -1205 1984 2548 -1193
9.4922 710 -1929 408 -1009 874 -570 1856 1816
9.4863 2546 -118 -445 -434 -908 -148 -1472 -372
9.4805 1214 1469 631 -2278 2260 2734 1306 -568
9.4746 984 -117 -2312 1706 1307 791 1051 82
9.4688 -1739 2254 -454 -456 748 -2405 -304 886
9.4629 -317 -3499 277 1336 -1921 3423 295 110
9.4570 712 1540 420 -68 559 -1731 3002 -2442
9.4512 -209 -1096 215 -105 1564 -98 -370 3103
9.4453 -1462 33 -513 1490 40 1831 -1062 479
9.4395 879 51 477 -2292 776 -374 2826 -1377
9.4336 -2175 3036 2905 -275 -2825 -1044 472 680
9.4277 1506 1790 975 -225 2057 2386 584 -523
9.4219 1204 272 -7 201 1761 2274 1544 665
9.4160 -476 -2302 -273 768 -1248 655 -1162 421
9.4102 -3993 650 1103 74 1049 -1414 149 -576
9.4043 126 13 274 -1077 -626 -2614 -343 -3696
9.3984 525 2910 -686 -623 150 661 1119 -752
9.3926 -418 648 646 -1787 771 2585 -2572 -583
9.3867 -416 -1513 -1945 2509 312 651 1464 -1754
9.3809 1861 -906 1615 13 2068 882 4 1517
9.3750 -882 1002 -1996 -191 2886 1384 -1392 2026
9.3691 -411 642 -492 962 -723 2121 -404 -861
9.3633 -555 -1974 1055 1705 2087 793 -177 2013
9.3574 2192 -875 -1799 -676 44 1708 1667 609
9.3516 1760 -331 -98 -3216 -703 -297 1807 -90
9.3457 -464 257 -465 -2845 -919 -171 -243 -915
9.3398 -614 930 -2121 -344 -821 -302 123 1073
9.3340 -3834 -232 -1639 -2443 304 202 -1020 -278
9.3281 -1184 2133 2582 1733 -1696 1073 540 163
9.3223 -172 -348 -825 -960 -1140 3580 860 -952
9.3164 -918 851 2732 2563 -1364 -1908 -890 494
9.3105 -745 -803 3114 -1847 1044 -187 -831 2886
9.3047 -1850 439 -210 -983 -588 167 3891 782
9.2988 -343 -2038 373 1227 4215 -2296 -2104 -2633
9.2930 -2259 1798 -124 -1029 245 -97 -179 1761
9.2871 1316 -508 1879 1547 -343 -642 -533 -1357
9.2812 -3114 1719 2063 -3564 -417 -1394 -559 614
9.2754 1658 767 1087 1695 441 1746 1369 -981
9.2695 1153 -556 1581 1785 -2016 925 -1390 -739
9.2637 -664 819 1033 -32 -3051 789 1752 -3884
9.2578 -854 -836 397 -385 1552 -556 -1294 -2870
9.2520 -2737 -306 969 -1496 985 -577 1322 1987
9.2461 718 -1357 1584 323 113 596 1058 1779
9.2402 -1923 1863 408 2029 -117 1241 1478 2020
9.2344 -418 2215 -695 -1743 -1167 -1910 2138 1507
9.2285 -2712 -293 420 355 -754 -1000 1301 -97
9.2227 -1290 440 -943 -351 1187 -272 3824 -2080
9.2168 -1431 2375 346 -221 1476 -245 -1411 2319
9.2109 199 331 302 -32 -1236 -1458 -2438 1371
9.2051 159 -280 -2162 -1981 -569 521 -220 -98
9.1992 -1290 1202 462 1967 820 -1473 -913 -230
9.1934 1718 114 18 2144 1354 998 -2587 -244
9.1875 3006 1036 1931 2789 1219 -2894 582 -256
9.1816 -1273 1560 -1052 1949 719 -711 -1228 2792
9.1758 -274 567 1 -1224 -454 -251 -2500 -1068
9.1699 -1316 513 251 -1792 -892 171 -1193 -2517
9.1641 1314 28 -470 -671 533 -600 89 1684
9.1582 2134 2511 -1464 -35 -1885 -1569 -2054 -568
9.1523 -644 -1434 -120 789 -736 -1222 1176 -321
9.1465 355 -1556 864 1261 -1534 -1587 -591 905
9.1406 1145 1698 -1350 -2892 -1315 113 669 -2005
9.1348 -59 -515 694 -1317 -253 -487 397 27
9.1289 598 318 1244 -1421 5129 2102 -2032 984
9.1230 -709 -1171 1821 -3457 -1157 781 -2478 1349
9.1172 -667 18 2230 169 1555 2081 -810 -579
9.1113 2059 955 2282 3592 -1303 -88 722 -1934
9.1055 -1409 -2195 -402 160 2518 3919 -207 -204
9.0996 454 599 -62 2212 1781 -834 -3362 48
9.0938 2212 2381 -659 -833 131 -897 -1368 -882
9.0879 2784 2234 508 1377 -749 -874 1078 739
9.0820 -1917 1931 -3228 -919 1829 2186 4300 -353
9.0762 -182 686 171 -1581 -405 -496 1495 -308
9.0703 211 -11 -431 1654 -671 783 1905 -205
9.0645 1702 -674 514 -2066 1534 1798 -7 -2354
9.0586 -444 55 1933 -3428 434 209 -2202 1046
9.0527 -2603 896 1502 -1351 -1576 -1410 -669 763
9.0469 1013 -592 868 -1578 -146 -2605 2156 -1890
9.0410 -1303 2543 1493 -1546 1414 4155 477 -1378
9.0352 -871 2633 -751 -1195 3824 -2485 -1199 -2521
9.0293 -1021 -700 730 -2191 1047 -913 2172 -838
9.0234 39 -2854 -2725 828 3121 -2494 -404 -283
9.0176 84 1024 960 1162 -3835 -2344 3306 1893
9.0117 -2549 -754 690 -1206 -693 -2338 -1594 3031
9.0059 195 -120 937 -1144 533 -107 1020 -1468
9.0000 -258 1752 832 -1338 -2963 887 602 -860
8.9941 -1483 -78 391 971 724 618 -978 573
8.9883 -71 -622 279 3856 -832 -379 152 -218
8.9824 -247 802 -1398 921 1549 -851 3078 -2204
8.9766 715 229 497 -1131 -2098 532 -2671 1362
8.9707 1187 228 1108 473 393 1 -981 -254
8.9648 -17 -864 -38 -1783 626 -108 -3227 -452
8.9590 -1534 -175 2533 -1270 336 -1469 -540 1112
8.9531 628 -66 1436 1627 3133 -2755 -2274 -1847
8.9473 -1150 1397 143 -890 -432 -1474 1384 430
8.9414 -120 -2652 -926 -2172 -851 976 -1261 992
8.9355 -1405 2806 -229 -785 1183 1301 -1471 -1717
8.9297 -1733 904 -954 -735 505 -1262 604 651
8.9238 -980 -1331 1760 -2506 318 2630 -758 -1725
8.9180 950 9 -1316 777 -223 2097 1092 -1316
8.9121 1058 606 -282 -1598 1134 359 -1264 -214
8.9062 437 1449 2438 2045 -696 1557 -1589 -180
8.9004 801 -375 -837 69 2209 909 -1211 2161
8.8945 -375 67 341 205 -1323 -662 -292 1261
8.8887 -2695 1283 2208 -1725 16 -724 -1893 2046
8.8828 735 2345 2174 1776 -24 1194 744 -123
8.8770 1050 -702 -119 860 1406 555 -1185 482
8.8711 3193 174 1197 -1729 597 684 -880 123
8.8652 -170 1072 309 -2175 1001 3557 -2079 -1580
8.8594 -758 -1435 -1518 337 3297 1528 -246 458
8.8535 1210 935 -349 -1685 -1550 2889 1116 533
8.8477 1296 -1087 -561 170 -1948 -1347 427 -587
8.8418 -2449 -1158 555 -378 2045 2610 -1125 1100
8.8359 -72 -1008 1201 1569 -2557 -2322 1775 1324
8.8301 1448 1437 -927 -1183 -1183 993 1326 -2583
8.8242 -2322 788 -1448 674 -1435 -1390 -1610 494
8.8184 910 -989 -538 -552 483 -23 212 -849
8.8125 -37 -80 -162 425 -1798 1023 1924 246
8.8066 -2443 1803 -240 257 230 3094 -1447 171
8.8008 -443 1180 1284 1529 569 679 713 916
8.7949 826 -575 3643 744 -3923 299 437 -1602
8.7891 -1 62 -929 575 -2108 2085 -2587 -2395
8.7832 386 -2877 1438 1179 1186 -2292 710 -1397
8.7773 1295 1363 -2275 -1007 -2111 2412 1824 -1701
8.7715 -110 -4494 1213 797 -1424 603 -678 -1401
8.7656 -213 294 1701 558 -436 1019 639 117
8.7598 773 1583 240 1696 10 -550 -1702 -1777
8.7539 4011 -2667 217 457 -1074 -1468 1718 -1083
8.7480 142 -157 -936 230 286 572 1454 -457
8.7422 798 -2431 498 -1145 229 -1597 2123 -861
8.7363 3020 -2180 -836 1146 2882 96 -620 -561
8.7305 -2534 -2452 4157 -2028 -546 1019 880 62
8.7246 -51 2150 3496 182 -1722 -2330 -347 1830
8.7188 666 -326 800 448 320 945 906 217
8.7129 -1180 532 -1627 629 -476 -1855 3598 -611
8.7070 1513 -1036 117 1692 -1753 142 2124 -780
8.7012 837 -288 -704 -860 185 63 -611 742
8.6953 -158 438 1160 256 -220 -1653 -537 -3238
8.6895 -1948 57 483 1375 23 -2586 655 825
8.6836 -1540 439 -2218 -1932 62 719 1153 732
8.6777 -474 608 746 -1186 54 1275 1622 -1362
8.6719 332 -671 810 1380 -743 232 249 626
8.6660 828 433 99 1320 -4375 -3241 -1484 -713
8.6602 -493 522 -835 -1343 -762 -1215 368 1365
8.6543 746 1012 998 -241 -2743 -1925 -1031 812
8.6484 676 551 1574 -686 -150 449 -152 -727
8.6426 -2463 68 1014 -2756 11 925 1015 943
8.6367 -488 885 1176 1128 -651 437 329 -532
8.6309 -1081 1007 -1584 1341 -1974 -155 -21 -606
8.6250 1837 -340 81 -947 -2488 489 -736 1799
8.6191 1334 -1268 -2245 -296 1081 -497 2487 -341
8.6133 -664 625 -38 1585 -359 -1415 639 260
8.6074 622 -172 2777 -1850 -1634 -1358 1784 -2214
8.6016 -524 -2389 1041 -467 -2060 1401 -560 -1333
8.5957 518 48 378 840 -1824 3059 2628 -82
8.5898 -2976 1708 -866 1674 -227 -1305 -828 -3165
8.5840 -1471 2147 3008 1476 -1324 339 696 -114
8.5781 -3657 -304 -783 874 -2083 639 -251 3646
8.5723 2325 -1272 -1493 -214 177 1449 -1257 346
8.5664 -168 31 939 -2315 216 -608 -92 1117
8.5605 -3472 -1466 -1725 2278 2230 602 -1012 961
8.5547 -1465 -2401 1466 -564 -1598 -35 1868 689
8.5488 -96 -3305 508 1923 344 -901 -221 1594
8.5430 -1174 -2575 -476 2034 3647 -820 769 -1316
8.5371 -467 -1575 -1347 -68 2558 -57 -302 -40
8.5312 -1259 2729 2686 1745 -529 292 -2558 547
8.5254 1729 604 -533 -1428 -502 2036 -663 -143
8.5195 2362 -1775 -3229 -650 -226 -199 2141 -732
8.5137 247 321 82 -1404 1569 1718 -2573 -886
8.5078 -1250 -918 -2119 4168 586 -98 2598 -71
8.5020 30 2689 -1178 -1640 947 -852 857 -1706
8.4961 -2826 2853 1842 981 364 -383 1235 -1349
8.4902 -1156 -358 161 -763 -1362 201 -907 -233
8.4844 -176 2 -1343 -1350 876 1097 -2589 1092
8.4785 2074 -37 379 -1340 3058 -1997 2149 -20
8.4727 974 596 419 2098 -849 1378 135 -601
8.4668 1146 270 -605 -813 1727 -734 -1637 -472
8.4609 2050 877 -1948 -1148 -1509 2789 -2208 1256
8.4551 2051 90 923 -330 348 76 -1787 2158
8.4492 507 2230 425 -991 1624 -1180 -1190 817
8.4434 1427 2576 494 -860 867 373 -1036 957
8.4375 2426 -912 1626 2839 3758 -849 -2085 78
8.4316 871 -450 1312 56 -580 981 -609 -2259
8.4258 216 1118 2793 -14 -247 2802 -384 -1447
8.4199 2361 -813 -541 3323 -1591 2101 -1463 173
8.4141 614 1798 -1206 -164 283 1936 -1588 949
8.4082 328 -3375 -1948 -82 916 645 -1377 1273
8.4023 524 1857 13 -2300 1314 -1545 112 -2064
8.3965 1764 1390 -467 -1045 487 -1296 1974 -2341
8.3906 -2274 1344 104 1057 471 -419 -936 -2163
8.3848 -1070 138 1551 397 -1283 1055 431 1263
8.3789 176 912 -1500 2696 1389 -1256 -829 -1763
8.3730 -1346 -725 -584 -1204 -332 1079 -1867 1613
8.3672 2614 704 776 -2075 -351 -598 -412 758
8.3613 -1546 80 -3382 2638 -2518 1591 -339 1016
8.3555 -1058 1081 -563 46 -2458 -2891 2174 1872
8.3496 -444 589 615 -3823 -320 -2574 1643 -2214
8.3438 -1596 447 2278 1326 3187 -1978 1666 -445
8.3379 140 -1384 660 -695 1012 465 -86 1016
8.3320 -2381 132 -3189 -484 213 270 -724 2253
8.3262 226 396 -691 3197 -107 990 -441 1801
8.3203 712 -2044 1183 -1128 332 1053 2034 754
8.3145 -565 1340 -239 398 -598 633 1906 2724
8.3086 1069 2189 -1241 432 1873 -234 1024 -399
8.3027 -975 -204 268 -416 329 3720 -1535 -266
8.2969 -1985 3651 1820 -196 -698 161 -760 539
8.2910 -1256 -442 1674 -1496 862 -2091 173 1827
8.2852 -771 1477 2720 1515 3608 -658 376 517
8.2793 -2796 610 -1559 -1266 489 210 1673 -574
8.2734 -1522 537 -1277 763 1082 851 194 809
8.2676 -1897 1057 2196 -1292 477 -1122 -450 -494
8.2617 -391 1304 -3632 -2168 1077 329 -2237 641
8.2559 683 -788 3611 184 1323 1126 98 935
8.2500 -439 -1580 -860 1087 2611 -1553 2832 1042
8.2441 673 1040 -1963 373 -579 -92 2632 -202
8.2383 -2948 -2512 2115 86 -1853 963 95 -261
8.2324 -422 -1512 -532 -353 1909 632 -750 2697
8.2266 2036 -256 1137 -429 -667 1217 -143 414
8.2207 -1458 895 1545 -123 45 3968 141 -434
8.2148 45 1367 304 -1116 2203 -968 2068 -2037
8.2090 -735 -1511 966 -415 -1520 -671 -304 1985
8.2031 456 2291 1586 2017 -2465 -2672 -1454 -1626
8.1973 -1923 -1479 -1809 -3240 2038 -1563 696 315
8.1914 815 -3019 1223 2779 1709 178 213 3384
8.1855 1234 1074 1258 -1561 1247 -1315 1222 863
8.1797 -1005 -1111 2059 80 -1724 964 -847 1102
8.1738 -272 1591 1529 -224 975 -1150 -2919 1612
8.1680 -353 -1116 2237 2709 -866 2514 1225 -820
8.1621 -260 604 148 -659 -110 -183 1676 2033
8.1562 101 570 913 940 1168 35 691 978
8.1504 -759 1073 -1243 -781 -2037 -952 -122 -128
8.1445 1540 1850 -888 61 1783 -1069 -1634 -129
8.1387 2176 -1057 -106 -2142 -1417 -460 -2705 -1410
8.1328 -503 -133 -657 2633 230 1166 1231 2414
8.1270 218 -2998 -1731 -1931 408 2289 -2136 329
8.1211 874 -327 2218 -292 1366 1245 -1627 -3155
8.1152 888 -1851 307 -968 901 -395 -278 -197
8.1094 562 -336 1298 -1859 -1101 1 -704 -1509
8.1035 -681 -835 1225 1575 -122 -715 491 -1886
8.0977 733 168 -3114 -671 3039 1061 -942 -1318
8.0918 -1711 655 449 129 -210 653 1031 539
8.0859 -1591 -706 946 2266 1798 -425 -1537 2593
8.0801 1649 -754 2565 1981 -731 -59 758 -174
8.0742 -819 3245 -1240 -1166 -1733 -279 -1232 -607
8.0684 250 -1432 589 -1624 -899 -499 -169 3023
8.0625 2278 -3761 3141 824 -177 -1517 2792 -780
8.0566 -109 -2180 -1689 -3050 -1229 -566 260 2059
8.0508 2205 1184 136 2461 345 -1164 1468 -538
8.0449 2906 3135 -494 1565 1925 1164 1778 -53
8.0391 -1338 1402 470 -1862 234 -603 3085 -3903
8.0332 2340 443 1728 737 -1370 2487 -1048 2600
8.0273 -1010 -3417 -113 -1864 429 1184 -1778 1866
8.0215 -105 -964 1388 2107 424 -1831 2093 1102
8.0156 -1486 -597 283 1978 -1576 797 3241 2810
8.0098 -859 2336 -550 962 1572 1149 2166 1871
8.0039 1362 162 -1047 108 2250 478 -394 -1118
7.9980 -1383 966 -1392 766 126 2682 679 -1687
7.9922 927 547 -332 732 -89 3148 1387 987
7.9863 -1517 1646 2528 -723 -1085 -1457 -708 924
7.9805 -431 -1081 2484 461 -328 105 -347 648
7.9746 691 -3027 1850 -217 -1017 1114 1450 444
7.9688 533 -1459 -2015 1525 686 1120 -621 1113
7.9629 3623 -1308 -1225 -202 2857 3660 -376 2338
7.9570 -66 67 -977 78 -3257 538 105 -2336
7.9512 287 -1209 -247 -1405 1301 -2137 -830 875
7.9453 1288 -669 -344 1213 2951 -716 996 761
7.9395 -533 2117 1979 275 -1131 1524 459 2105
7.9336 -2899 -752 -1001 1022 475 238 1484 -1255
7.9277 -920 -209 1135 -2700 1757 -1231 611 1872
7.9219 1160 2037 73 -943 1643 -736 520 -1521
7.9160 2514 -1696 -405 -551 2977 1574 -691 2257
7.9102 -504 -363 445 -568 538 -147 -1553 2674
7.9043 -625 -547 1896 740 2793 61 1211 2029
7.8984 1145 -1788 -2078 352 20 1155 -582 -1273
7.8926 -36 -2425 412 -1252 538 4477 -1964 3008
7.8867 -1082 2238 -1164 2020 -847 -1604 2224 867
7.8809 1948 -505 -155 798 455 356 666 1007
7.8750 -898 1644 -947 1302 -1053 -759 124 2062
7.8691 1276 2371 2536 269 3485 2026 940 1282
7.8633 -303 3234 774 113 246 281 303 160
7.8574 1767 -462 911 1750 1199 1494 -136 -90
7.8516 1180 -1525 -438 1731 244 -486 -1282 395
7.8457 864 -14 852 2394 1134 1288 610 3379
7.8398 -754 1816 -476 -13 1093 562 -2099 2006
7.8340 1107 -1216 497 940 1732 2761 -375 -932
7.8281 -711 156 460 -2762 882 -1363 141 1511
7.8223 -834 77 -1853 -394 -1150 1438 -2210 -1448
7.8164 786 -1358 2151 777 665 1132 -1495 1259
7.8105 2072 -247 -1905 -318 -1654 1221 1380 2847
7.8047 -741 -1242 -1929 -1377 3242 633 -228 -782
7.7988 1111 -1164 222 2431 731 -1389 -882 956
7.7930 125 836 1830 1050 294 -1113 127 616
7.7871 1505 384 -894 3536 -532 3912 427 -573
7.7812 295 -278 2099 -714 -659 -2223 67 1079
7.7754 -8 -889 -1874 1851 739 1509 -1136 -589
7.7695 -89 739 -1851 2354 625 -372 -226 -1162
7.7637 1930 107 -926 -431 1383 -1228 746 2106
7.7578 -260 -137 2639 3888 864 -365 119 1435
7.7520 1898 631 2796 2554 510 462 472 1493
7.7461 -1124 -304 -51 458 132 -148 -1204 -1182
7.7402 283 -1295 1689 2677 2081 4203 1283 264
7.7344 -2152 -909 720 844 -805 -1069 1660 -140
7.7285 -728 384 430 1500 2271 -624 1671 2184
7.7227 286 1228 73 1063 2179 4110 2561 -1304
7.7168 753 -448 -633 2643 -556 -1699 871 -1030
7.7109 -891 -1344 -212 1344 -2348 162 113 65
7.7051 -502 -1439 -503 -1362 3286 1709 3694 -131
7.6992 762 415 653 481 1338 911 -850 3270
7.6934 1408 1779 2006 3497 692 619 -598 -359
7.6875 -1146 -1208 245 -580 -298 -330 1274 5022
7.6816 1072 1750 615 1878 2544 41 2 1985
7.6758 2259 390 -486 1738 950 218 3276 1989
7.6699 197 2840 1985 1308 2073 3807 -140 94
7.6641 1250 1699 511 598 -698 1780 1266 1177
7.6582 3227 1835 3340 2296 -1328 3085 1878 -931
7.6523 1872 60 2493 2202 491 3176 2559 5280
7.6465 3667 1257 143 -220 953 2564 511 1380
7.6406 3030 4307 -574 551 738 -353 -979 2526
7.6348 2143 1334 -236 2256 -134 1366 1396 -660
7.6289 2247 -256 3105 5581 834 -1261 144 4972
7.6230 2208 2174 3487 2293 -263 4222 4229 3696
7.6172 2994 2235 -804 2846 1040 2010 1098 1688
7.6113 -1048 -68 3256 2661 1264 1879 -316 4796
7.6055 2919 3681 -188 2008 2897 475 2353 -1363
7.5996 2089 405 2775 4660 2327 2656 2128 2433
7.5938 675 2806 1728 1366 3218 1436 4710 3747
7.5879 185 1944 2821 3203 2783 3972 2417 5070
7.5820 3597 4098 3781 2053 2867 -837 3014 187
7.5762 2931 4807 3729 3123 2071 1377 3213 2856
7.5703 2070 1024 3442 1419 2637 -455 3893 4193
7.5645 4627 1112 515 2070 5100 2962 2936 5034
7.5586 3026 4570 2858 3334 4811 3976 4857 4728
7.5527 3227 5960 7661 5158 3003 4955 4274 -214
7.5469 1361 4090 5375 4650 1296 4630 2777 5023
7.5410 2501 4766 5882 5254 3691 5160 4219 4288
7.5352 7340 8090 3112 6939 7748 4369 5139 4371
7.5293 5746 4244 5474 5242 4575 3960 5314 6877
7.5234 5458 5039 5687 4608 2596 7594 8834 6069
7.5176 6895 5004 4465 4698 6715 8952 7699 8768
7.5117 10497 6008 7644 6371 6520 6581 5389 8837
7.5059 9083 9576 5158 8638 5746 6598 10954 7639
7.5000 8510 8141 9155 9591 8291 8929 8915 11052
7.4941 10444 11117 9620 13407 10639 11468 11693 10831
7.4883 12556 10899 10056 10766 13625 11302 13941 13690
7.4824 12104 14880 9618 12825 12907 14262 13387 14867
7.4766 15726 16192 15509 15581 16881 18280 14524 19329
7.4707 18014 20713 16899 17361 17763 17753 20445 21619
7.4648 21941 22514 24282 23253 22169 24955 26725 27271
7.4590 24589 30604 30252 31699 29163 29107 32795 31543
7.4531 36035 34819 36128 38036 40186 41392 41340 42450
7.4473 46862 47146 48155 49870 48243 51396 53008 55676
7.4414 60914 65595 64550 68435 70090 74342 80345 84855
7.4355 87449 91243 99867 102394 106615 112205 122611 128138
7.4297 136022 142912 152346 162367 177771 189222 203784 220565
7.4238 235996 256362 276515 301237 327465 358419 393550 430428
7.4180 475346 519607 573376 626236 688414 750038 809976 870811
7.4121 919916 964828 989793 1000000 995310 968775 930816 886234
7.4062 838051 783310 731321 679455 637569 603389 563676 536364
7.4004 514775 500741 489471 484655 486334 487136 495555 508712
7.3945 522899 541231 556036 574405 586857 591770 588645 577286
7.3887 559646 533503 505133 472319 439377 404195 374596 337413
7.3828 312445 284621 262889 241299 222240 201776 191254 173871
7.3770 162570 154895 139707 131464 126597 118481 108851 104907
7.3711 97575 90941 86752 80091 79339 75055 71621 64115
7.3652 66751 60750 59993 57807 52870 51275 50378 48477
7.3594 47943 47889 44924 42545 40331 40702 40598 35082
7.3535 34867 34457 33316 32561 28789 31810 28544 28917
7.3477 27998 27604 25760 24195 26853 23136 21685 22610
7.3418 23596 21884 21062 21048 21850 19705 17804 20526
7.3359 19166 16524 17064 14836 18747 18066 16396 12748
7.3301 15832 16495 12729 15538 14351 13473 14787 14168
7.3242 15768 12076 12292 12937 11667 13527 12795 13254
7.3184 10395 10964 12285 10509 8979 9284 6074 12715
7.3125 9095 8533 8263 8813 9004 10517 9410 8142
7.3066 7489 8278 8881 7810 6808 8186 5746 9520
7.3008 7387 7079 10839 6789 8102 7510 3730 5142
7.2949 7126 7320 5938 7229 5436 7325 5568 5791
7.2891 3288 8039 6291 8411 4425 7269 8421 5801
7.2832 5183 4361 5567 4213 6222 4777 5235 4718
7.2773 5176 4285 4737 4471 3812 3368 2668 4857
7.2715 4971 6822 4104 4730 7975 3911 6038 4781
7.2656 3681 3396 3532 3468 4130 4307 997 824
7.2598 2709 4664 3388 4524 2730 5762 2766 2657
7.2539 715 4431 5283 6351 3183 1711 6063 2066
7.2480 4117 5233 857 4726 4599 4324 5551 3797
7.2422 3484 4919 2173 368 1788 3599 5725 1114
7.2363 288 4686 3837 2180 2922 2556 2257 2866
7.2305 243 1569 1985 827 3482 2754 4658 1878
7.2246 2284 2540 -286 1577 2704 4232 235 2228
7.2188 -11 789 4607 1843 1854 574 1033 4296
7.2129 2465 3280 392 -474 2783 3216 3008 2577
7.2070 2619 1823 2091 -564 1942 3417 3242 3510
7.2012 1996 2530 1015 1747 3638 2577 6799 3236
7.1953 -21 1138 279 2028 1181 1381 1048 -1120
7.1895 -737 1673 1773 -500 1568 4148 1094 4308
7.1836 1134 3356 -435 1567 2031 1953 2653 837
7.1777 3706 1337 182 2952 -47 -3902 3665 -834
7.1719 3969 1471 400 1434 2246 616 -448 2546
7.1660 1758 2058 1091 -190 990 -1126 2747 1202
7.1602 2301 2230 2212 1135 1191 -323 2172 -1552
7.1543 -646 1300 974 1876 2168 1901 1415 4930
7.1484 3981 2009 5265 2862 690 19 -571 -524
7.1426 1579 427 3366 -16 1651 865 3535 109
7.1367 2266 3404 697 -449 596 30 1897 2377
7.1309 1652 301 1177 2730 -1506 -1206 102 253
7.1250 15 3038 4125 -567 -85 456 1560 179
7.1191 1960 245 1191 1238 -316 1504 360 -1971
7.1133 -2218 2481 2350 890 1187 1426 816 2267
7.1074 2188 837 2944 3927 -850 -393 1502 -682
7.1016 1227 -1167 1031 963 888 585 1061 -579
7.0957 1229 606 3959 1837 1608 3262 1504 2647
7.0898 1398 2558 536 -1125 1635 -205 -1235 195
7.0840 2731 -256 2468 1018 2079 871 1920 -54
7.0781 -2134 2545 541 52 2929 556 2747 -1221
7.0723 1631 687 999 849 681 710 735 -102
7.0664 1027 -537 167 772 727 738 344 447
7.0605 1785 1669 2458 280 -451 26 980 671
7.0547 -3535 -168 -143 -270 -1842 3501 1379 3778
7.0488 -1532 1668 151 619 2499 2603 -911 -904
7.0430 3319 -521 -2268 2800 -1423 666 1972 2476
7.0371 592 1120 22 469 4371 -1008 587 -300
7.0312 -874 685 2511 -1082 -306 3396 1159 1683
7.0254 1659 759 517 -49 -222 3178 3416 2596
7.0195 1006 3040 -521 1788 -302 2221 -984 1054
7.0137 -198 404 -419 -154 -913 833 1619 1288
7.0078 355 352 2050 3476 167 655 236 -1772
7.0020 146 245 841 487 -454 -862 1490 -1063
6.9961 -1789 1177 2611 1603 1817 -365 -1118 546
6.9902 -1170 1792 -1711 -563 19 -81 644 -1421
6.9844 2427 3352 988 2863 -894 2458 -7 -93
6.9785 -1343 -785 -3077 595 2579 951 1862 1437
6.9727 2072 2915 -366 1489 1212 2265 892 2463
6.9668 -280 239 838 1047 2612 1039 -1689 132
6.9609 -2030 -991 -1085 -2847 -675 -1803 -298 139
6.9551 -659 -13 -1372 1397 1066 1545 1263 -2461
6.9492 415 -532 -1621 2559 1731 -1366 3010 -1477
6.9434 1252 -2942 -2320 1881 1478 2028 -842 -852
6.9375 100 2501 -1578 298 412 -1409 -2134 637
6.9316 2098 -1464 1657 -1612 1483 225 937 1047
6.9258 132 -283 3411 1493 -124 154 -1334 362
6.9199 2067 604 -167 2714 -2520 719 -454 2300
6.9141 2506 -2545 772 5062 3892 1977 81 -890
6.9082 518 -342 396 -489 -234 1008 123 -3769
6.9023 4403 3476 676 1352 23 -12 -1206 2975
6.8965 -716 1305 -1495 -1200 376 -1378 -249 -926
6.8906 356 12 -486 249 3106 656 332 2800
6.8848 2558 52 -415 -4823 -2221 -2728 -1986 2548
6.8789 -4026 -384 632 1282 -715 2676 -145 -2389
6.8730 168 1775 -879 2844 981 2438 -568 488
6.8672 -656 1185 401 1952 -269 -3737 1626 -72
6.8613 1814 -2534 -577 1653 -768 -1807 -544 -1270
6.8555 63 -224 -383 418 3576 -1405 797 1143
6.8496 923 1346 -2529 2498 1023 2131 2377 437
6.8438 192 -924 -314 51 1482 -594 -3474 -1496
6.8379 1212 485 -3804 938 525 1543 -1546 391
6.8320 -48 -894 1054 1535 2306 -1945 649 -752
6.8262 -1121 1143 -82 -1213 1210 244 -189 802
6.8203 1882 630 1041 2312 -664 2276 -789 195
6.8145 1278 -2813 -1704 -99 94 3933 379 423
6.8086 351 -2432 -653 -348 597 957 937 1570
6.8027 157 185 -2281 -1158 1588 -2935 292 -825
6.7969 2374 1397 -2905 933 1878 3277 498 166
6.7910 -2273 1702 -1512 -781 496 829 -2261 -1036
6.7852 -56 -761 -27 179 1745 -2996 310 -1668
6.7793 764 1875 -1442 1413 -417 -3591 -960 1414
6.7734 -320 280 -941 2199 216 975 -661 867
6.7676 -247 1568 1097 -605 33 -656 -1793 -303
6.7617 -1337 411 141 -38 -699 -705 1725 707
6.7559 -114 344 -26 1281 1611 2020 -1296 1334
6.7500 -544 -2226 322 -1243 -1885 341 -423 536
6.7441 987 632 3851 521 1777 1096 -690 -227
6.7383 -1704 -147 970 -356 769 101 262 246
6.7324 367 -1241 -43 -1799 883 1020 -1580 3541
6.7266 1675 -900 -1055 -1215 1681 -409 -2781 -1449
6.7207 458 577 1067 -254 -3404 371 662 1601
6.7148 -832 1645 2306 -1839 343 1137 -22 -24
6.7090 1145 1619 -186 -1559 72 928 1416 751
6.7031 663 1665 -814 786 -3196 -256 -123 436
6.6973 157 -822 -1956 1584 -231 2482 1200 2223
6.6914 -1163 1992 2120 -28 -965 1301 -365 723
6.6855 1134 497 -918 -767 -1710 -538 1282 -341
6.6797 -1312 -425 1165 -880 795 -487 728 1441
6.6738 -481 -1420 -1450 -1474 618 1381 1526 -1907
6.6680 -2741 1539 -1306 732 1022 624 465 416
6.6621 238 31 713 -3041 277 2183 -347 -747
6.6562 320 -172 303 -1954 -99 -625 -3744 1404
6.6504 -1148 2506 372 -345 -417 1719 1202 1800
6.6445 450 1346 -1525 -897 -141 1322 -3364 -1038
6.6387 823 -429 -1852 -197 4700 -1186 -350 1564
6.6328 237 1036 2283 4130 -949 -166 304 967
6.6270 -38 -435 1089 -1959 1089 979 1658 232
6.6211 3050 -323 2041 835 1146 1236 911 -656
6.6152 -1972 519 758 4146 -1417 -104 -1746 601
6.6094 -293 2219 -2595 -97 771 -337 -1822 -275
6.6035 -1748 -94 306 476 1447 -1218 -3624 -3055
6.5977 -1307 2910 -1441 -1633 1045 121 691 -1533
6.5918 1243 -25 581 1863 673 -1304 -467 -2767
6.5859 305 529 1835 517 1063 1008 1392 -1471
6.5801 532 -1201 901 3320 753 1149 1763 -1706
6.5742 -152 429 328 1016 -513 -701 1618 231
6.5684 2309 -531 2286 -1759 -1624 -1184 110 -2626
6.5625 417 -309 -2854 2143 553 -1342 -222 1042
6.5566 -2097 -1809 525 188 -1362 509 -2617 -686
6.5508 761 -2633 -1913 -1329 2084 -1027 1744 2064
6.5449 -676 -2402 -819 -869 -104 293 -3660 876
6.5391 2937 388 1149 -339 -2252 1713 -572 -436
6.5332 970 559 1029 -1589 2198 -878 949 -1057
6.5273 -85 -938 1796 1239 3259 -3965 -1849 2903
6.5215 1679 89 -1778 1254 2535 1340 -1351 -1450
6.5156 1484 -1385 -305 983 1478 -224 -549 -1200
6.5098 1434 3978 -741 1807 3257 -1750 924 619
6.5039 -1770 721 534 1356 -2516 1147 -455 1804
6.4980 1817 919 1013 1051 -2383 2249 -312 -642
6.4922 46 1223 -254 -1300 -1750 -1579 -470 1784
6.4863 869 -1046 946 34 -2673 126 1557 396
6.4805 -474 -1408 635 -375 1007 -1194 856 -1305
6.4746 -312 452 1035 2177 308 1029 -213 -2525
6.4688 370 1544 -388 -1231 -585 -389 -1736 -3002
6.4629 463 -1004 134 2770 468 -348 1087 -59
6.4570 -2256 1069 936 -925 1576 -474 909 569
6.4512 1155 -181 -1611 2309 -3343 -1600 429 -754
6.4453 -2384 840 113 -4069 1216 288 -152 745
6.4395 890 -524 -956 333 2650 549 961 -1348
6.4336 -1963 726 -1252 688 694 -112 1699 -1423
6.4277 -477 509 1520 -2037 -827 1285 -3385 367
6.4219 -1650 -2106 729 874 59 -168 2470 11
6.4160 1570 -807 -1631 2643 953 630 -613 -1898
6.4102 -2534 -738 40 2445 2234 1558 1592 -291
6.4043 1164 -1494 1013 1456 260 1366 -2256 -744
6.3984 1378 1434 -1812 1540 2164 -4217 325 -252
6.3926 -17 -307 1435 -386 1687 519 -183 -1557
6.3867 -1802 27 -1984 1493 64 689 2518 -881
6.3809 -806 2082 2087 795 -382 1017 -911 551
6.3750 44 220 429 1561 -405 1528 -1934 231
6.3691 116 -200 -3171 1163 -2314 1271 360 1477
6.3633 -3315 1480 -1437 -2201 -1910 -602 1106 223
6.3574 49 -1378 2350 661 2009 912 2929 1912
6.3516 159 720 1034 1084 -125 1851 -152 -53
6.3457 172 -1141 1737 1564 -463 2884 1556 -828
6.3398 -1910 -396 807 2366 1006 1770 3687 -141
6.3340 2663 1287 -562 3174 980 -363 -1865 1780
6.3281 -2048 2353 -1152 1504 1788 1851 1263 1938
6.3223 888 80 649 1899 2470 847 1232 1301
6.3164 1294 912 -1736 1780 -570 -422 -1189 -7
6.3105 -2097 -1036 -1512 2781 -405 -1848 2263 1378
6.3047 -1869 -2627 967 2481 1560 -545 340 15
6.2988 1062 -2389 2609 -1175 1744 1358 3426 520
6.2930 -2561 -802 -891 -609 2462 -1335 1025 204
6.2871 1628 3038 1091 1038 -1088 -1817 -666 1950
6.2812 164 535 225 1625 145 887 1746 114
6.2754 -3592 249 1948 2574 -2481 640 -615 -1816
6.2695 -1670 -1321 -2383 1477 2118 -1327 -1137 1287
6.2637 1409 117 1157 858 2879 880 820 -534
6.2578 -412 -954 -94 -709 2067 24 1949 540
6.2520 -603 1651 -1043 -2001 -282 1158 -244 1802
6.2461 -745 844 814 -1091 -643 1880 -977 -480
6.2402 -450 -305 -3554 149 2569 -439 -1262 1419
6.2344 -1606 -800 -2798 -1963 -3344 556 -1088 2586
6.2285 -999 -61 2899 -1697 -1089 1535 -861 -11
6.2227 1726 -1269 193 -1933 160 423 -580 -674
6.2168 -1246 395 772 -1037 525 1039 -1455 906
6.2109 -717 11 -178 -79 -2951 707 -734 -178
6.2051 1587 180 524 -1062 -1750 2702 -1922 858
6.1992 -1616 171 -2064 137 -571 -252 -837 1451
6.1934 -554 -1302 -390 401 1474 1704 993 172
6.1875 -2132 -1970 1407 -651 -251 -1295 -1434 -219
6.1816 1607 1426 -105 238 640 2508 1772 973
6.1758 -402 644 -630 -539 946 3524 -1587 -261
6.1699 -1436 202 818 143 557 1024 -1474 3376
6.1641 993 -1192 1427 1688 -148 1448 394 1383
6.1582 1272 -20 -29 359 -1096 1378 182 -1978
6.1523 552 4512 -1706 -637 782 1616 -881 -249
6.1465 822 1833 -714 1657 -47 -2428 1010 2764
6.1406 1414 -2670 401 2184 166 2434 -2908 -1389
6.1348 -1126 -1000 1114 -1571 -1555 1582 -426 -2443
6.1289 874 -385 -601 630 700 -309 -1796 -288
6.1230 -419 -725 114 599 -187 518 639 639
6.1172 1621 -1983 -1147 949 4371 -1902 719 -551
6.1113 701 1869 -113 1507 1705 502 650 -80
6.1055 206 -3074 733 -730 -4 -1 35 -1057
6.0996 -159 -947 -1116 253 1376 2129 -198 1517
6.0938 2759 -121 -366 455 -1494 -387 802 51
6.0879 303 773 -1250 -1728 -622 -556 2193 157
6.0820 -281 366 -1193 -1357 1252 1790 -3652 512
6.0762 1545 -5 3646 2625 -1020 412 -673 -514
6.0703 1540 -600 2160 -306 1146 2948 -1412 734
6.0645 2012 1047 1663 2402 -844 442 -487 478
6.0586 -2370 1064 1799 -3551 130 -1927 -163 994
6.0527 2471 727 31 1800 2428 1485 246 -761
6.0469 867 521 -1528 130 3091 849 1438 -985
6.0410 310 911 543 2973 -1732 1549 -607 -1920
6.0352 -2110 1594 -509 -2881 1942 -1193 1152 440
6.0293 1014 408 504 2089 180 429 -852 2396
6.0234 -1282 -1243 381 -12 -332 -712 1218 1832
6.0176 2886 902 107 1033 1141 258 153 874
6.0117 1815 706 -327 199 2140 -1292 400 1960
6.0059 2307 -340 -620 3421 -806 955 2117 1696
6.0000 -1460 -189 -1846 -671 1388 -1582 1873 1581
5.9941 -635 3807 2641 799 776 2042 -1886 -1997
5.9883 2914 -587 2211 718 3386 -586 -844 306
5.9824 2488 -2742 427 767 1134 -71 851 846
5.9766 972 35 3024 1097 -109 -402 142 165
5.9707 -1779 -2934 274 86 221 424 1681 516
5.9648 1598 -471 -183 1745 1837 -2651 530 -1826
5.9590 -772 -656 169 -1508 2607 406 -313 -1535
5.9531 -206 -1442 599 789 632 1207 500 2300
5.9473 2046 1463 352 -150 1179 -603 -1282 -2272
5.9414 1461 1549 -1370 2018 571 -670 -1354 866
5.9355 727 1279 214 -1127 3828 -751 -817 1153
5.9297 -446 -726 -1031 -521 873 1674 -48 1156
5.9238 -650 -717 -998 -1977 -1228 -1801 -328 882
5.9180 -54 133 2057 194 181 -4258 -1083 -3391
5.9121 3291 -168 -1792 -3936 1731 1026 632 407
5.9062 638 1321 827 -667 -1024 1174 -1503 -439
5.9004 1525 -2255 1630 -904 2126 -1025 69 -1628
5.8945 -1292 -627 -1955 2520 1316 1047 1972 1764
5.8887 427 -1639 -906 280 681 -1267 4 -1481
5.8828 -342 -8 -559 -62 -2366 -2280 1756 191
5.8770 -1052 2621 634 -669 -509 1014 1261 283
5.8711 341 -101 2272 -109 -1948 720 -489 1249
5.8652 1883 2025 2513 -704 -1900 -699 919 -932
5.8594 -542 -699 468 -8 126 -232 -4149 -1451
5.8535 1465 1722 1890 -51 -1091 372 -323 640
5.8477 -1843 1063 -342 200 -2956 -2704 1351 -1296
5.8418 772 68 -3266 2829 -318 -1167 -1264 603
5.8359 -1465 614 1754 1054 -329 1226 2085 940
5.8301 1845 1388 -249 -1791 231 -2548 186 -909
5.8242 2293 -2863 -247 -7 1052 -3969 -1625 -719
5.8184 1425 936 343 1435 868 734 3889 -1700
5.8125 2030 3435 373 1149 1877 -885 3 494
5.8066 -774 1551 -414 191 -1356 340 -521 855
5.8008 365 -765 2568 -1603 947 -1212 -172 2281
5.7949 -353 -637 411 2457 -776 165 -1645 -643
5.7891 -708 1006 59 -861 -1786 2025 130 486
5.7832 -51 1379 524 1153 -1113 -889 706 2260
5.7773 -1407 1834 -1195 97 890 -744 -2016 784
5.7715 187 -974 -1960 1834 -654 -228 -1921 1694
5.7656 117 580 2105 486 -1508 -1836 485 -2257
5.7598 2816 -417 -707 2447 -62 2217 -1202 -811
5.7539 2957 681 2755 -447 -44 443 208 -1056
5.7480 1772 -1658 -551 -1207 -4528 1386 50 -1441
5.7422 1577 1098 2158 -766 182 -2615 3118 -1278
5.7363 -226 123 -313 201 1314 -250 1060 2544
5.7305 183 -1665 -2149 339 -1460 -2089 -178 -862
5.7246 -1881 -1158 -1709 2422 -472 935 572 547
5.7188 -1930 -701 957 1157 1552 -2096 -1366 421
5.7129 -1988 -586 -1160 -2138 1492 -395 611 -170
5.7070 -1282 -477 1210 1294 -1160 752 1322 547
5.7012 164 494 -755 -943 -1478 -228 446 -112
5.6953 2929 902 300 -2909 -402 -1939 -1549 1392
5.6895 -911 1372 -1808 2049 2196 2132 237 -497
5.6836 355 143 3134 2240 -2630 1754 -932 -553
5.6777 -1057 -147 1670 -45 -201 118 373 -2578
5.6719 673 2230 879 -975 -45 2949 -2209 -3648
5.6660 -130 -537 -2648 -629 886 1365 1087 -60
5.6602 1487 125 1486 691 -425 -578 -1689 59
5.6543 781 -512 -2712 -1191 -81 1322 1940 -1206
5.6484 588 3821 -2897 -2044 -449 2292 -1508 1120
5.6426 -2702 618 -933 -322 2658 -2758 486 -847
5.6367 -935 2483 517 273 -53 1053 -1910 2212
5.6309 -2284 -3133 -497 171 -841 -537 -796 156
5.6250 443 -255 382 -934 1855 -2242 591 2146
5.6191 72 -770 436 -1584 994 -1711 -938 298
5.6133 -475 444 -1414 1870 -771 1528 -71 1690
5.6074 1062 -942 163 672 2107 -2498 1554 -2026
5.6016 69 -1516 -608 3340 437 1920 -207 1400
5.5957 2171 144 -1410 3118 -429 -1824 668 349
5.5898 -3044 1911 504 -60 1822 -2945 3189 1096
5.5840 -796 1434 1678 112 -527 -1673 -1538 -1956
5.5781 -2184 1556 -1287 -1847 2700 -94 2226 1597
5.5723 -2205 2034 930 1187 927 -1129 -1637 -1473
5.5664 -1836 -1125 -112 -1675 816 -409 -1534 -1621
5.5605 127 548 -1617 1831 -1824 -1117 1986 -414
5.5547 1484 562 -2571 554 -554 -3144 -139 937
5.5488 -2527 -2060 -2865 693 690 687 -9 -908
5.5430 1990 -2901 -339 -1746 -1316 -2183 579 -1399
5.5371 615 -103 -1112 1198 -1475 -438 2478 1908
5.5312 -53 -189 -423 -1802 -2376 1091 -396 316
5.5254 -908 -1247 1986 768 -3335 33 -2165 1069
5.5195 -275 -839 -569 -264 3124 -1649 1342 756
5.5137 915 -679 -1613 -1458 1219 -1069 -409 -850
5.5078 210 724 -2573 1399 -844 -918 786 -130
5.5020 -563 3106 245 -115 -163 -398 1899 -1176
5.4961 -646 -64 1906 -1462 -1250 386 -83 2039
5.4902 558 3499 -1588 -2467 1417 2417 760 -980
5.4844 1778 3331 -2165 460 1911 -1127 1387 108
5.4785 2391 750 -645 1592 -1794 71 3264 1413
5.4727 821 -211 3279 1160 -1802 1917 83 1168
5.4668 -143 -1395 -2977 205 -1325 35 619 -1413
5.4609 -237 1516 -576 -213 338 1403 846 500
5.4551 -1727 148 -955 -1216 -1574 1906 156 1826
5.4492 1348 2644 -1888 441 443 -178 -251 -312
5.4434 207 798 -847 -479 -351 -719 -1912 1621
5.4375 -3445 1351 1313 -1124 -1833 -466 -1077 -5119
5.4316 341 -1107 745 -1620 1105 -3162 1802 -360
5.4258 708 907 323 1387 -1673 -1208 -1110 2084
5.4199 -638 -3736 -807 -84 -675 989 -3107 2270
5.4141 -1713 469 -1191 546 -1486 -2690 425 -1341
5.4082 995 -433 2388 764 2152 677 -692 -916
5.4023 1188 -789 -575 -297 -918 -352 618 -1390
5.3965 702 2859 297 633 41 2981 1185 -730
5.3906 -631 675 -941 190 -279 1123 -1953 453
5.3848 368 2554 748 -361 1769 -857 390 -2056
5.3789 -1960 677 68 -696 279 -2033 650 233
5.3730 366 1626 -318 -1541 216 510 -707 -399
5.3672 -1338 1732 -61 -1320 1295 -120 1243 -576
5.3613 1087 2795 4883 243 -437 240 1846 -2275
5.3555 -233 1216 1400 -1191 -222 1490 1033 4038
5.3496 -333 -2819 350 257 -395 988 -234 -1898
5.3438 2084 856 1324 -388 2030 1777 -2151 -1323
5.3379 854 -2938 -924 1049 43 -403 -2190 1030
5.3320 -532 3717 -33 51 -1426 -582 -974 2727
5.3262 -2360 1028 -811 -2157 3246 3222 542 170
5.3203 -2777 -284 714 -920 -1375 -1296 -3231 484
5.3145 1306 23 -5 547 -215 -1806 -1341 1737
5.3086 1957 826 -126 -76 -512 680 2989 530
5.3027 -2297 1168 1559 108 216 127 1241 -2467
5.2969 -1228 -99 598 988 -2012 649 1112 -2310
5.2910 -845 0 454 -435 -105 548 1081 787
5.2852 4123 -598 -182 -142 712 -2797 403 796
5.2793 -3048 -921 1226 -808 1207 2125 691 1047
5.2734 -2536 -424 21 -2081 -170 1229 1727 -1807
5.2676 -31 142 303 -1143 397 -1450 -1428 965
5.2617 2526 837 1624 -97 729 298 -2698 578
5.2559 -1965 894 -1388 1750 1571 -1009 -1058 1879
5.2500 -1549 1201 799 262 -2437 -1399 3603 670
5.2441 202 -560 -1024 -1480 -1843 1663 -587 -4650
5.2383 440 234 -438 -46 -134 545 1597 -1771
5.2324 223 -556 -115 -143 -191 2058 1455 -3869
5.2266 -3169 -456 -947 1693 2014 306 -2043 1229
5.2207 629 -808 904 1533 2543 1560 61 298
5.2148 -946 -356 1281 -993 -894 -1542 959 1439
5.2090 -1527 -600 -35 -1399 -479 849 -598 -318
5.2031 -924 -1765 253 -1400 -365 1307 75 2638
5.1973 857 553 -649 -1251 975 -1938 849 756
5.1914 -1607 327 892 -1453 -361 -411 1754 1372
5.1855 -698 -1362 190 -341 -1615 -66 875 -235
5.1797 1020 799 -1435 -3278 -1564 -2627 1367 -270
5.1738 -3045 -1752 1557 -2374 349 491 -1435 1600
5.1680 -3461 -655 -2578 568 133 -620 -2383 695
5.1621 1376 -557 -3 -1236 -1003 1965 -19 -264
5.1562 -1247 1009 -3064 1159 -1437 1317 2342 1471
5.1504 195 3885 -225 592 3635 -813 1972 2522
5.1445 1026 28 -35 -510 266 -607 -583 1070
5.1387 -1641 -1948 1712 -801 600 1566 -2380 -698
5.1328 -725 -1244 -620 -194 -451 -584 3133 -238
5.1270 2121 2939 -2174 -902 -1901 1280 112 1012
5.1211 -2636 762 728 -1391 -82 325 2349 1381
5.1152 -2729 -1351 753 -1020 -1370 -2335 -582 675
5.1094 -70 796 -1391 -2430 -1134 1398 -1520 -2276
5.1035 1952 1641 1201 -213 -2408 -2498 709 2674
5.0977 -638 -49 -1702 1161 -2075 -751 1428 2732
5.0918 -1033 -492 1208 -429 -989 -1033 -62 124
5.0859 -851 1894 -1428 479 156 -976 -2507 1081
5.0801 -1252 1698 341 336 -1106 -2732 -1048 1005
5.0742 -845 -406 1452 826 -833 2289 1537 -315
5.0684 -1999 -1074 2053 -471 -1460 -324 729 783
5.0625 895 103 1224 -344 1629 -1498 2234 731
5.0566 -952 -33 1102 -128 2362 -961 -1883 1906
5.0508 -240 1032 3646 -600 -466 -2567 -1709 -724
5.0449 1190 -117 844 2404 2117 -1414 1539 174
5.0391 2408 1461 1408 -1389 4427 535 441 -3331
5.0332 152 1781 1658 200 1630 -32 -546 -3828
5.0273 790 181 -1695 259 -1455 -1569 -368 -109
5.0215 -931 312 1603 -54 80 -107 1130 430
5.0156 120 62 1834 2069 3553 -133 545 1649
5.0098 1014 -1960 -2776 -2734 -857 -175 -1566 1249
5.0039 -594 1942 -1762 -2802 -30 1625 388 866
4.9980 -2471 40 1285 2260 -428 4791 2174 -198
4.9922 -160 -259 -1513 1070 -512 -744 -1489 2002
4.9863 -430 -85 1553 -1700 557 96 -1189 -1542
4.9805 1878 108 -1837 873 586 755 2420 160
4.9746 -2327 -1411 450 264 1737 2251 1076 -433
4.9688 -1732 -829 1173 3022 -758 1157 1757 -135
4.9629 -1172 -46 -2268 -754 399 -1404 749 549
4.9570 -564 -1163 2456 -1174 281 -259 680 1100
4.9512 -231 82 1135 -2080 -956 -275 -143 889
4.9453 712 1804 -187 528 1096 -1389 623 4230
4.9395 -482 -2982 -879 1761 1907 -2815 -2006 3291
4.9336 -422 813 1358 974 31 40 640 -480
4.9277 -946 -339 2104 -2481 450 -2483 264 1503
4.9219 -366 546 417 2461 1016 696 -890 -289
4.9160 -489 -1211 -1335 1339 -2656 1882 -487 297
4.9102 -1582 -329 -480 1319 335 -155 516 547
4.9043 -976 2022 94 2020 506 -649 -2442 -1785
4.8984 866 -297 -15 3513 2693 -1261 2142 -1026
4.8926 1959 770 -409 1306 759 -1144 -56 -2450
4.8867 2722 762 2512 -1181 1628 1174 353 291
4.8809 4867 1660 -1364 -1092 2445 -1668 -22 -454
4.8750 -2143 3026 -737 783 -1508 3101 2079 464
4.8691 1313 1459 -1324 -1949 366 -173 523 1331
4.8633 562 -2573 553 837 396 -939 -572 -899
4.8574 -2635 1441 -1401 -434 -1175 1838 2537 2815
4.8516 -1168 375 -1228 892 689 -120 847 -1952
4.8457 1985 -330 -555 -1367 -1238 285 -1707 216
4.8398 740 -120 2331 -1247 -1239 2751 2065 2719
4.8340 -853 -2241 1425 -1481 -1696 1192 3115 -407
4.8281 -1612 -1224 -103 -2071 -94 -2461 -1437 127
4.8223 -248 -1242 1454 333 -1218 -1106 -1119 1733
4.8164 1891 1808 -635 330 -1281 327 1795 -975
4.8105 630 -302 5272 -527 28 -1841 -1106 683
4.8047 -653 -717 -154 -2627 1538 493 1034 1953
4.7988 1616 424 -870 425 258 -429 2733 -290
4.7930 1231 -742 255 -1442 43 625 -89 2015
4.7871 -764 -313 -1588 -107 -482 942 1149 860
4.7812 -876 22 670 -1304 1904 1610 1212 -1026
4.7754 3430 -2723 -964 767 742 744 -842 1681
4.7695 2087 -423 -643 1443 1735 -107 -199 -704
4.7637 -1001 -1318 110 2247 1061 -652 -831 813
4.7578 -2465 -712 1230 -2000 -191 -484 3319 -717
4.7520 -1336 -1745 -1724 -660 343 330 2159 1206
4.7461 -2250 1504 696 293 311 799 -907 294
4.7402 1049 -74 1273 2087 -1637 1929 462 79
4.7344 830 -109 774 -2677 243 2991 1345 1723
4.7285 4543 1534 -890 920 378 1665 412 237
4.7227 898 557 -188 -198 1666 -1352 321 -2544
4.7168 215 190 1167 18 930 689 772 1242
4.7109 1118 816 1115 1564 1029 671 -2177 -1785
4.7051 413 297 562 189 2708 675 -1091 658
4.6992 -2539 -502 431 2129 -2044 -322 -2571 -192
4.6934 242 -2046 -1412 681 799 -1186 -60 -2250
4.6875 -1732 -1578 -848 0 101 166 1469 126
4.6816 -1686 -141 -966 -731 -2 -78 -556 -4394
4.6758 46 1742 207 608 -137 978 -141 -3076
4.6699 563 643 2437 2520 1882 1468 -1050 160
4.6641 521 -1562 -2813 -899 -609 -1575 -2133 -1101
4.6582 382 1398 -77 358 -2829 -2634 2335 -838
4.6523 1214 2258 -2007 -930 -1263 -3449 -699 -1447
4.6465 1915 -614 1250 240 -1290 874 -826 403
4.6406 -2863 -661 221 563 -2198 500 -974 -472
4.6348 -344 -1434 633 333 -2575 2190 -1443 -1232
4.6289 -2688 2151 994 -496 1013 724 -1524 -2400
4.6230 1196 -1405 102 1333 292 2728 -587 -964
4.6172 -3223 -93 1269 1184 -628 -1146 -121 410
4.6113 -1469 -385 -539 -263 62 -63 1481 -2021
4.6055 112 724 -1667 1494 -789 887 464 2114
4.5996 2204 -1728 1398 -652 1289 -305 1336 241
4.5938 -2235 694 -1968 -1999 652 516 2242 16
4.5879 1475 -697 3232 89 1900 327 1985 631
4.5820 -1143 -1290 -155 -1382 3693 403 2512 506
4.5762 -861 -519 69 191 -1356 2980 508 -596
4.5703 -1692 1445 3299 -325 -137 2928 -707 -979
4.5645 171 898 -1004 1234 538 -401 -1758 2560
4.5586 1262 -886 2336 -1298 597 3873 944 -2745
4.5527 9 -1034 2111 2559 2336 -2305 -203 -328
4.5469 830 2246 244 4324 -2296 -192 3110 243
4.5410 4062 983 2956 -597 -980 -1159 -2481 -1451
4.5352 -908 944 325 -3560 -29 856 5536 -1801
4.5293 115 -3104 748 -125 1529 1759 1312 4014
4.5234 1526 -352 -1591 -766 -1216 506 -1805 -830
4.5176 -1174 1182 -686 -489 -679 528 -770 -2781
4.5117 -876 -479 995 -1072 3565 79 639 -1057
4.5059 -179 -2258 307 1345 -120 2454 1697 544
4.5000 126 1972 -329 -1767 -2565 -1050 -2127 -374
4.4941 123 1791 -1206 541 -46 -130 -1900 -759
4.4883 -1266 2052 578 922 -1489 19 1838 534
4.4824 847 83 -359 -2064 1737 25 824 -130
4.4766 -253 -1268 -3968 193 1276 608 322 -508
4.4707 -2214 -2207 2242 2161 2568 -3387 997 1111
4.4648 -1546 733 -1466 -1448 -4590 2234 1024 -1988
4.4590 1379 232 -213 1550 -347 844 196 2014
4.4531 625 631 678 841 2500 -2934 87 -4493
4.4473 -1381 2262 -1651 1767 1037 -314 -1413 892
4.4414 261 3377 739 -410 1162 1620 1087 1112
4.4355 -1165 -1201 -57 -93 237 -1740 -2574 -1135
4.4297 -1343 -1401 -462 117 42 -2285 785 -492
4.4238 -1180 485 -88 284 -1391 238 -651 79
4.4180 -1903 227 -1515 427 -394 -2459 -1131 2117
4.4121 775 894 -1566 2585 1616 964 -347 -1575
4.4062 -1804 2650 -3846 379 -558 483 -95 -292
4.4004 636 -978 2444 650 -495 -1519 -1106 699
4.3945 -1039 -17 -1593 -1148 320 -108 -1169 -1328
4.3887 -510 -945 199 786 721 1811 605 151
4.3828 154 -33 -156 409 -2721 1141 1425 -1010
4.3770 -703 -1643 -1482 -1016 2617 -1567 697 -1077
4.3711 136 -2021 2229 -2054 1112 765 902 -1283
4.3652 133 887 413 -2986 -1581 -440 591 -936
4.3594 1431 -1510 1595 -111 -1523 -2757 1512 -553
4.3535 -17 2079 -1115 3211 761 -2260 -622 -327
4.3477 653 -226 1565 2282 -936 -1550 -189 -916
4.3418 1559 -525 -3024 2020 1516 1109 -1653 -1950
4.3359 -1336 -461 -517 1624 -152 -1662 -192 2525
4.3301 -1550 2860 -1887 -259 -235 710 1429 426
4.3242 1128 -1264 295 -707 1337 -248 -1073 956
4.3184 -546 41 -4099 1261 276 -2191 1903 -2908
4.3125 52 -2679 1531 -2030 -3830 897 1067 -629
4.3066 461 -566 285 420 671 113 -247 -645
4.3008 1995 -1765 -10 283 -1974 -1933 -1233 6
4.2949 2092 -1263 -925 240 -155 -2099 1325 4200
4.2891 -1302 1015 2266 -79 723 340 3486 -1982
4.2832 961 206 -681 -627 -817 -332 1613 2432
4.2773 -295 -787 1008 -444 -566 2182 -727 -550
4.2715 -2070 762 -1039 -95 -1579 -554 1511 1153
4.2656 907 736 334 -103 -1881 -569 600 -2156
4.2598 -694 3259 -377 -41 -62 141 -2176 575
4.2539 -823 -626 4100 177 719 2158 -2155 174
4.2480 -1017 1161 2467 -630 994 1552 2646 -1063
4.2422 -2275 533 1430 1279 -186 -221 -69 1432
4.2363 -401 -486 -1210 680 -2999 495 -83 2771
4.2305 -1052 -1321 -3233 237 1853 -856 -2368 -1383
4.2246 3025 -1177 1262 -42 -1006 -1069 675 -52
4.2188 -2732 17 1254 254 -2680 -4646 -329 -2102
4.2129 128 1421 1865 -568 -528 -1244 -439 249
4.2070 -1163 -1519 273 1983 -190 165 757 -832
4.2012 -1884 -190 1008 -1481 -480 -608 -1346 -502
4.1953 773 -228 -649 312 -1527 433 1442 37
4.1895 -263 1298 783 1125 955 -2129 1825 -151
4.1836 3572 -2852 937 -2733 -2489 732 684 920
4.1777 543 -2423 1096 850 262 755 2084 -943
4.1719 -320 2087 1455 534 1059 -602 -1581 925
4.1660 1201 160 493 -192 5 -1020 -271 -345
4.1602 -252 58 204 -70 1643 -287 1702 -263
4.1543 295 -2392 875 1078 1332 395 1780 -1689
4.1484 880 847 1978 -400 1651 -1879 1569 539
4.1426 3102 -1213 123 160 878 1382 -275 -755
4.1367 920 -1206 684 -3465 710 -2730 -330 1222
4.1309 -408 438 310 4348 601 26 -214 1421
4.1250 -826 -785 647 1762 974 242 -1437 -1053
4.1191 -2448 1143 -1046 -262 -103 -669 109 744
4.1133 -1812 1013 -1881 -537 -1 -1174 135 1444
4.1074 -2252 -2118 266 -906 410 746 -669 772
4.1016 2648 -1763 -687 -2962 2780 2178 1412 3901
4.0957 1248 -784 1007 1946 -8 2001 980 -438
4.0898 -2379 1126 -1305 694 -3532 -1453 -536 -101
4.0840 -38 -537 912 -92 -258 1868 1217 1506
4.0781 -1363 2137 -205 2294 1935 2693 -590 879
4.0723 1077 443 609 708 1837 142 -3612 1225
4.0664 1813 524 -510 875 2234 -1986 -893 1502
4.0605 -872 519 -463 -3 203 1408 -322 -1086
4.0547 1379 -247 409 320 1578 -1623 -703 3140
4.0488 -2250 236 -681 -2843 -2307 -3146 -2365 -675
4.0430 1196 358 -1578 -404 2707 110 -3306 -1728
4.0371 1235 -1543 -746 2513 -1861 2277 -944 -1886
4.0312 2284 -2960 -352 1797 2718 1195 243 -2514
4.0254 151 156 725 -1656 -560 1817 2895 -859
4.0195 1578 987 50 -1894 -1482 -696 492 800
4.0137 -370 982 -1888 -1347 36 -555 -269 2294
4.0078 1137 725 147 -1161 -530 875 -1002 -155
4.0020 813 -1370 1450 -1301 1538 -2264 -1351 -37
3.9961 2365 -907 105 -2188 4597 -2619 1006 -2811
3.9902 -263 934 4406 -288 2489 -1461 454 -107
3.9844 99 -1093 2960 -810 1583 -331 -228 -850
3.9785 -1707 -2055 -562 -383 1851 2640 -1593 -2387
3.9727 2876 362 -2263 1017 -3006 1106 -2432 485
3.9668 647 1336 -204 -74 -1158 -2690 601 -184
3.9609 -1718 -1927 -314 -3223 1254 1463 -546 -695
3.9551 594 1214 178 -328 2889 -1029 1099 664
3.9492 894 995 -1643 1665 493 1158 1044 -762
3.9434 2160 1496 1048 -1382 1711 -12 42 -1114
3.9375 -467 -1065 1180 -652 -2230 90 -2883 -266
3.9316 -1307 2117 127 -2400 294 1627 1066 1831
3.9258 -2568 -116 26 2888 -524 2 -2498 -2461
3.9199 -1848 2401 1003 -1964 521 -933 -488 1498
3.9141 -799 1579 891 -598 1170 -1564 -467 709
3.9082 -166 1785 -5303 389 1502 -1300 -643 2856
3.9023 1154 -3652 -2191 -2656 -1751 1053 -612 -598
3.8965 -2878 -276 -2070 -1004 915 1409 -1406 798
3.8906 1197 -24 1757 -421 1361 357 1136 814
3.8848 1886 515 -1553 -1961 230 -2673 -142 -246
3.8789 742 -1720 -2075 605 -77 678 1959 -466
3.8730 -1030 -400 335 1639 -1322 274 1510 538
3.8672 692 -115 -1248 2856 -1829 1609 426 -67
3.8613 2441 -941 771 558 1149 -1777 -984 -123
3.8555 1467 673 -1210 -3293 579 -1549 2147 -184
3.8496 2854 531 741 -2296 2319 1271 -1166 377
3.8438 -1127 -558 -184 1719 -1199 -157 -2191 -280
3.8379 -1033 2240 -373 -386 403 36 1101 1221
3.8320 991 -2849 2561 1929 1336 1688 -535 941
3.8262 -509 -1403 -465 213 704 -235 2334 3399
3.8203 -11 1573 762 -1768 729 -1805 -1409 -157
3.8145 -902 285 -2531 2137 -519 2869 -948 -1382
3.8086 -380 -1341 -515 -1347 764 -247 -76 -192
3.8027 2233 -972 2358 -639 853 -2009 3211 -197
3.7969 -1463 -739 3117 -1541 -170 1198 12 -1605
3.7910 -85 1701 810 519 156 2150 377 413
3.7852 -807 -18 542 -678 1941 -1953 1495 1694
3.7793 1353 -2331 390 1628 -1425 -929 -2194 -1233
3.7734 764 -837 -2771 638 -1396 -2968 -359 -2673
3.7676 2829 -1584 1763 720 -1170 1007 32 -53
3.7617 -1674 -1123 -2150 -644 -94 532 926 3200
3.7559 -849 728 52 346 -390 938 909 1377
3.7500 -879 2786 -1446 615 -1426 -1220 -581 -422
3.7441 -1203 -805 -3799 874 225 -410 -1307 -18
3.7383 356 -1282 518 -2419 -966 -317 2343 -236
3.7324 1267 1420 856 -431 -2500 544 -1004 1467
3.7266 -819 1685 -830 -920 2935 2991 1311 -3170
3.7207 2158 -2163 -512 1200 -68 617 -509 0
3.7148 1453 516 -946 806 1201 315 -1183 599
3.7090 -1746 -49 873 678 1624 814 294 -1116
3.7031 476 -658 -57 2139 -722 -2479 -20 3102
3.6973 -3052 176 180 -1400 1406 -162 -297 -879
3.6914 -321 38 -629 1166 -627 -1318 1266 3728
3.6855 -482 -1604 -1478 133 1870 -1071 1192 -2347
3.6797 -1981 -134 338 996 999 2849 958 348
3.6738 -276 904 -408 2081 559 -649 2136 -675
3.6680 29 1864 1718 1138 2237 -659 154 801
3.6621 -175 -2415 621 463 313 139 -587 -94
3.6562 -1224 -1114 -1778 -1161 1495 1279 -207 1818
3.6504 -763 1731 3844 1049 -1016 167 -1290 -618
3.6445 384 -1386 -3431 -733 759 -1860 775 1701
3.6387 -1250 -7 1221 78 -751 -100 -1006 464
3.6328 387 1230 1159 1541 -1814 -2598 -1570 590
3.6270 -930 -1240 -3384 -136 -1489 2143 -594 -1380
3.6211 -1565 -926 252 1865 1739 -636 3123 1952
3.6152 1948 292 297 -2025 -1229 -1390 -1998 2864
3.6094 574 -2438 -2442 -500 692 448 -591 -1208
3.6035 -843 -1618 -610 3175 433 -3458 -2146 -3679
3.5977 2150 -646 432 -999 2526 51 -1756 -1619
3.5918 -1921 911 -2012 2988 -854 1021 780 483
3.5859 -2174 2128 -1085 560 760 -4735 -745 854
3.5801 395 376 918 -765 710 -5728 2872 -3821
3.5742 356 866 -1160 -1223 343 -1768 -434 -390
3.5684 -2259 1770 1732 1466 3769 581 -1054 -944
3.5625 -648 468 -1985 -620 2376 977 1187 -2879
3.5566 -1755 2553 236 559 21 -504 1491 1526
3.5508 546 882 1711 1844 -1400 -492 -1780 1354
3.5449 -1817 812 2180 -264 842 -80 -103 -749
3.5391 1831 -1081 1449 -285 312 -2406 -934 -53
3.5332 -127 1098 -343 -1664 710 -552 1226 1602
3.5273 -207 1673 2716 3914 -731 2640 1618 1094
3.5215 -414 -741 -2035 -2227 1021 -678 362 -1169
3.5156 -91 -1745 -832 1406 2390 567 2079 571
3.5098 821 955 1171 1057 -1800 -3556 -2493 165
3.5039 2187 -657 -1466 -723 2238 -759 158 2064
3.4980 1098 -2240 -111 801 1210 -2286 -2074 545
3.4922 -593 -1506 -2135 1052 1009 -631 1733 -1474
3.4863 3015 2784 -850 62 -973 835 28 852
3.4805 832 1320 -1303 1350 2976 -168 -2369 1376
3.4746 3557 -1152 701 -450 -231 253 -586 -421
3.4688 119 1460 -37 -241 1064 -677 -271 -2014
3.4629 680 695 373 -1681 1207 1118 2047 -2503
3.4570 -1498 -1908 -553 94 -1917 -1485 2319 -670
3.4512 -2754 -870 -722 759 -2763 78 -1355 23
3.4453 147 -146 -1892 -4526 -541 -2048 -1180 -3193
3.4395 -454 2595 -1567 1072 -1439 4119 -2519 -427
3.4336 369 437 -1960 2153 -109 -654 1973 615
3.4277 -723 -1265 -9 2555 -2377 -335 -783 -462
3.4219 -2049 1989 -786 -200 276 -707 2953 3023
3.4160 2351 822 1207 1447 1093 698 1096 -2152
3.4102 -1858 740 -493 5 -1324 6 -786 -831
3.4043 -1306 445 -741 -1044 -1942 -212 -1848 2950
3.3984 -1097 377 -1440 1987 1337 1925 -3571 -1879
3.3926 -780 71 879 -2239 -1961 -548 -913 -95
3.3867 -510 1725 -1315 -2490 -1382 760 -1338 2118
3.3809 -689 3124 1113 -534 -2259 -205 2744 1047
3.3750 821 -1566 -1350 153 -898 36 998 1315
3.3691 -771 -114 -450 -656 -342 -256 1865 -1434
3.3633 62 -62 -1782 -999 1796 580 506 908
3.3574 -168 -2156 -928 -1119 676 885 -1517 665
3.3516 1819 -2402 1214 435 231 875 -707 -1796
3.3457 1442 1419 -1175 803 1906 -1690 2255 2310
3.3398 907 -1136 948 -699 1044 -1564 -1481 2994
3.3340 1502 1733 -638 -1559 793 793 -798 620
3.3281 676 -442 -1979 -2545 -147 -11 218 638
3.3223 -624 1912 -1663 -2453 -3037 -811 822 -1405
3.3164 249 -1984 -1971 -374 -1425 1072 1083 1571
3.3105 950 -929 -1370 -2111 -998 2280 2638 -948
3.3047 -2604 1795 1331 -1194 -2476 107 600 -918
3.2988 95 325 656 1459 -370 2542 2383 -491
3.2930 -910 -1855 -839 -445 -3 333 -1242 36
3.2871 -234 2271 -231 -1383 -98 2374 159 1039
3.2812 2660 -185 -272 2533 -444 -923 2484 -396
3.2754 -767 1540 885 -3221 1463 -673 -98 1907
3.2695 872 1767 892 1961 818 -533 875 485
3.2637 3637 -382 -2084 2515 378 2253 1429 9
3.2578 -371 -175 -1816 -47 1884 -2094 330 2146
3.2520 759 467 -417 -1494 1104 795 2121 224
3.2461 1211 487 -296 -1906 -16 2678 683 -532
3.2402 -718 616 -555 592 -1669 -375 -1529 -1919
3.2344 -1893 1539 292 -1160 -1317 336 -965 -2388
3.2285 -1382 1467 2667 382 233 2209 -560 2749
3.2227 -48 -243 496 35 -517 219 1149 1476
3.2168 1741 1414 -378 -3094 2019 -798 545 478
3.2109 1056 1493 160 -56 -3493 49 -623 -3088
3.2051 -464 686 363 43 -1971 46 -1416 -1037
3.1992 2471 -1937 209 -1338 -809 -1131 -40 3
3.1934 -2791 384 2497 -1717 345 -1818 818 -1679
3.1875 1305 -85 -338 1383 4150 -522 1788 2893
3.1816 -2349 -1639 -1221 -873 872 2473 -1366 1991
3.1758 -1138 -1139 1015 -1339 -695 1764 -265 1814
3.1699 449 1578 500 4383 -1495 513 -983 3356
3.1641 -97 525 289 1169 4328 -2502 -1256 460
3.1582 -1517 1000 966 11 580 29 -1384 -2008
3.1523 -603 -350 -307 2075 -292 589 -559 -651
3.1465 -444 532 1896 -782 -2740 -2544 -2256 -2841
3.1406 -2312 -1731 1011 -349 2233 -2532 532 534
3.1348 1095 1318 -1115 861 320 -591 -11 -68
3.1289 -521 -2615 -81 939 2413 -1247 -318 51
3.1230 921 1226 -188 -1227 2025 -866 4532 1762
3.1172 -838 2923 119 -2444 -1435 3137 1224 1874
3.1113 3151 -539 377 749 1191 -2522 -1604 2229
3.1055 -2476 -2871 -1352 -2560 -2324 -1044 -2358 2109
3.0996 -1188 2582 -305 360 1308 -1319 -202 1854
3.0938 1202 680 273 2125 -477 -2003 -1100 -268
3.0879 -3023 535 -1649 1657 894 -698 -1345 -769
3.0820 -249 -376 1145 167 692 -1236 -2565 1644
3.0762 -1686 -20 1077 -1781 -467 -2248 188 -637
3.0703 -1432 -1444 -443 499 -350 1334 -71 -269
3.0645 218 -230 1939 27 -497 -183 -2179 -610
3.0586 30 2449 -310 -363 -1724 -473 -437 -1974
3.0527 2312 -712 1483 194 -1744 1387 154 -444
3.0469 761 -2148 1479 -548 -844 -513 -182 77
3.0410 1532 1588 -1516 -852 250 175 551 -420
3.0352 842 171 -1767 -655 1173 -2496 1242 787
3.0293 -1227 -1388 -383 -1184 -820 1259 -559 -1879
3.0234 1510 -2641 558 -72 9 -1250 -785 735
3.0176 30 3218 428 2411 -1172 1180 -984 89
3.0117 2963 1638 102 -1849 1017 92 4770 1654
3.0059 -596 -888 1274 -2223 -573 -3741 -277 971
3.0000 3543 648 -1218 -616 -2353 45 401 313
2.9941 -2028 1332 496 1384 -1622 -428 763 684
2.9883 609 285 -2506 -1372 2270 701 380 -593
2.9824 955 -231 -521 2307 532 1861 -905 -2078
2.9766 917 -725 613 1153 -507 556 34 -2431
2.9707 365 860 -350 1796 -1168 -2044 -1123 1211
2.9648 -878 -3278 2760 -3572 -444 -2070 -1416 -2771
2.9590 471 -1210 2059 274 -703 496 -1301 -376
2.9531 15 -58 1010 -1727 -1839 1146 31 -148
2.9473 649 -221 753 614 -3607 2189 -60 2252
2.9414 -70 957 1184 -1760 684 -1638 943 1439
2.9355 -1127 1851 559 209 -754 -1213 -316 1216
2.9297 118 547 -581 -549 -1193 130 -591 2790
2.9238 -1804 -1028 -950 -84 -746 2281 2884 276
2.9180 -1097 835 -578 518 -1245 1068 -188 -1159
2.9121 1895 483 555 1587 -1051 -259 987 -1654
2.9062 3220 -565 2030 -1829 564 -506 251 309
2.9004 -2831 -134 955 -2368 -2074 -271 -800 -666
2.8945 1460 -2668 1089 899 -701 348 608 327
2.8887 -2654 924 266 -1788 -3117 -226 1717 1387
2.8828 1248 2397 -179 2066 -1286 -914 -395 -1191
2.8770 3191 -1868 1931 -120 -759 872 816 -2435
2.8711 -1357 1869 3484 385 -1089 1279 -3186 2671
2.8652 2296 -897 -599 -1482 1608 1087 1447 -718
2.8594 1521 1588 1449 3876 1781 752 1936 758
2.8535 -10 305 -1254 2308 -299 502 -2359 -1259
2.8477 -296 1918 -1329 2813 1741 801 2520 -1732
2.8418 -1169 1537 660 2091 -267 -879 -977 289
2.8359 933 -2082 -1879 -2130 -920 -633 -759 -2474
2.8301 1231 1544 -363 -3014 -30 275 -1915 -606
2.8242 -1708 2247 -815 -3624 590 47 304 626
2.8184 445 1167 834 -991 381 -248 1394 -703
2.8125 -2000 449 -406 2277 257 276 2357 -951
2.8066 -1570 325 -69 978 44 -636 233 558
2.8008 905 838 2248 1963 975 -50 -296 -1768
2.7949 -908 819 -2292 453 -1355 -1005 -1850 355
2.7891 1693 1486 -907 270 300 1958 -2929 -3342
2.7832 -628 1132 790 -1351 1437 2566 460 -1575
2.7773 899 -684 1469 225 2198 -1015 400 695
2.7715 -1902 649 1183 -2077 249 -1218 -2530 909
2.7656 401 926 19 -3455 167 -1789 129 -569
2.7598 933 -3015 -26 341 -740 2461 -1369 -1353
2.7539 474 248 951 -1997 -3881 2003 -1043 -1299
2.7480 -895 1264 1964 925 -1252 2307 -335 -1170
2.7422 -203 -837 -1610 -143 -1840 -1735 1100 -1926
2.7363 237 851 577 387 -61 2756 382 1608
2.7305 -1376 765 -705 3061 -1426 342 234 -1845
2.7246 -694 -315 2444 -1674 97 1031 -3138 3073
2.7188 2272 1698 347 888 2586 1114 1478 414
2.7129 1704 -1265 1713 -584 3278 -992 495 711
2.7070 -1689 -1579 -1876 459 260 -421 -1077 1009
2.7012 -1542 1511 511 -265 -117 -419 -193 -689
2.6953 -411 2330 2884 504 -4059 546 65 -2348
2.6895 1829 358 -4080 187 -1665 113 -2007 2242
2.6836 2261 -2038 -2245 1615 -1154 -387 -4733 393
2.6777 116 460 1405 -617 -521 -1820 1239 1401
2.6719 -829 -108 -2190 2499 1928 -17 -3437 1796
2.6660 -1802 563 -3463 1462 2347 1370 1072 97
2.6602 1230 -525 -2595 -971 -2826 -154 2295 -930
2.6543 -42 -860 -482 -79 1705 772 -1387 -106
2.6484 690 2581 1825 2466 -2600 583 2437 67
2.6426 -1756 1601 1308 815 -412 230 -772 -602
2.6367 -669 -1986 -319 245 734 297 -327 -1508
2.6309 1514 -452 -1452 448 -1688 -897 -775 386
2.6250 -286 1141 734 -256 -1080 593 982 -971
2.6191 2427 -475 1614 502 -1944 1316 1097 -1315
2.6133 2091 -2133 478 -1279 -621 -1164 -1262 1583
2.6074 -194 2877 -1439 335 -312 1049 -1642 -1239
2.6016 775 -860 1560 2130 35 2461 -2667 -450
2.5957 -1439 116 304 289 170 -61 -818 1207
2.5898 -1943 -2206 2382 732 -1211 3784 2049 1445
2.5840 -1995 1792 -19 1381 -1242 -1399 -632 946
2.5781 -780 -647 -1670 -1480 1095 -1987 625 66
2.5723 42 153 -28 2686 -1096 304 778 372
2.5664 -813 -382 -187 -1242 -1674 951 -39 1095
2.5605 -110 -649 79 494 422 2252 -45 -1113
2.5547 -651 45 -1753 606 -2143 891 -773 269
2.5488 -856 -2096 48 -703 1681 1718 -629 -2230
2.5430 -805 2924 -1310 656 -2268 -2266 912 -155
2.5371 583 212 -634 277 540 -2380 2211 505
2.5312 1831 -2670 -1797 -1070 -1254 -448 -1762 134
2.5254 -2244 2556 -132 -1972 -211 -902 491 557
2.5195 503 -140 2925 2335 -1056 889 1757 32
2.5137 235 -1966 14 975 -2963 -375 1246 1153
2.5078 600 -162 -949 902 368 218 1848 -443
2.5020 -588 372 -959 2313 1312 938 -1948 3084
2.4961 1344 -1809 -2389 -1111 624 1272 1291 -1047
2.4902 497 959 30 73 770 -1617 -4557 -477
2.4844 -836 1193 452 3242 -452 3831 2043 1162
2.4785 -541 1840 339 3222 -628 -749 -648 -399
2.4727 2376 329 -2430 -983 1873 669 113 -598
2.4668 1664 777 310 2562 2909 2419 -1614 1794
2.4609 -561 -2690 -2537 -1056 323 583 1017 -635
2.4551 -52 -108 769 -1308 1595 553 -4771 1616
2.4492 2984 -1778 212 286 1994 1525 2606 -1822
2.4434 998 -1115 619 -122 -216 1451 -628 -2012
2.4375 -231 -249 -779 -797 -557 2547 2458 283
2.4316 -3035 141 858 -355 1869 433 475 -504
2.4258 -2804 507 -2883 3019 -343 457 838 -1068
2.4199 637 -581 1712 -1496 -770 56 524 -1557
2.4141 1088 2847 96 -57 -2355 -1155 1535 2688
2.4082 620 -1455 1472 -977 166 661 -62 -451
2.4023 -400 526 -1901 -423 3237 120 887 637
2.3965 2295 575 -2140 1235 830 1168 -2404 -260
2.3906 503 1060 -590 1328 -1287 -1862 -1413 2740
2.3848 -303 -658 1656 -3741 -3979 645 1357 190
2.3789 1558 1158 378 -766 1207 470 519 -677
2.3730 -2068 202 -1389 2036 168 -388 2199 1641
2.3672 -2284 1507 -711 -2987 255 977 487 145
2.3613 1890 -717 -1840 -316 -1352 1195 50 -683
2.3555 154 1245 -2227 -1895 -1996 1053 2326 697
2.3496 1102 -776 355 371 1088 768 -2556 435
2.3438 -736 -873 -3149 424 425 940 424 754
2.3379 -1201 -1242 2251 -1703 -865 33 514 86
2.3320 1722 -398 -1323 1384 1846 342 -1963 -401
2.3262 277 1964 674 186 -730 1544 -932 447
2.3203 1829 1992 447 1109 1547 -596 2093 -633
2.3145 -1231 1260 -1153 2226 965 4 2136 548
2.3086 669 534 -558 1095 -813 -337 1383 -748
2.3027 1177 2787 2389 -560 1199 1018 1135 -469
2.2969 -485 794 -147 1529 379 1938 390 421
2.2910 -1773 2441 1194 -1275 468 -2621 -1561 -2504
2.2852 185 1818 409 -513 1549 337 -2770 -1465
2.2793 -683 174 1167 2329 -1968 -716 -700 -1682
2.2734 842 2112 -2611 31 2538 -608 270 -1217
2.2676 368 -1205 879 -374 2128 -1519 -1637 508
2.2617 297 -1565 -357 -2970 -1751 836 1553 -1938
2.2559 1273 -139 -987 1205 -2043 1513 -1749 22
2.2500 751 -901 -1000 -954 813 241 -137 379
2.2441 -1431 -2308 1684 913 -253 3364 -456 204
2.2383 -872 -320 -476 -61 780 -3442 -1777 -1191
2.2324 -392 -1560 742 -1378 2497 1471 -1663 1626
2.2266 2133 1197 107 587 -890 -354 2521 -2273
2.2207 840 642 976 -1567 -4449 -818 -1509 1904
2.2148 160 -1897 2571 530 -2706 -823 1179 -2854
2.2090 -224 -1184 1365 177 -2336 -4 799 -704
2.2031 -539 1102 -1435 -918 189 1963 -1618 -670
2.1973 -51 -521 1384 -722 -1861 -575 1381 -82
2.1914 -773 -2243 991 -2547 1570 278 -674 -660
2.1855 -1038 13 1803 -576 -162 -895 -293 15
2.1797 -1482 -852 994 2443 -3490 1633 -485 -702
2.1738 -57 1139 43 -673 -3094 196 1101 -1742
2.1680 -2689 269 2032 2866 -1167 -1788 1527 -1780
2.1621 -187 328 -1147 -914 1449 35 -711 1912
2.1562 -296 -351 372 742 -2571 809 -537 207
2.1504 -716 822 -1504 1916 -1780 -2034 137 -1477
2.1445 -4675 759 -631 805 326 -856 -773 -3025
2.1387 -580 437 -599 536 1683 39 2359 2238
2.1328 2140 -1763 -896 843 -1050 545 -61 950
2.1270 376 -3448 -27 -303 -3445 1782 2426 42
2.1211 -1260 393 -1529 -889 1163 2745 -713 -1079
2.1152 -2888 -639 -167 -2563 -1490 -1179 1680 -2558
2.1094 489 1349 1813 199 1252 -927 284 -1136
2.1035 2320 -1831 -725 798 1653 738 -410 -1010
2.0977 102 -223 2717 366 1570 668 350 1699
2.0918 2034 4013 1065 -1896 -2580 3802 2631 3150
2.0859 -75 -1015 -2324 2854 423 1230 164 -159
2.0801 1769 -424 606 2475 -795 491 -1382 2155
2.0742 -1881 -1046 273 460 -1164 -1344 -2050 475
2.0684 -1159 -940 -180 -610 -376 -1305 -2232 -272
2.0625 771 -1005 -2026 -532 391 -1242 -2225 2074
2.0566 2566 -609 -1373 137 94 986 607 1420
2.0508 1234 1727 -968 -2403 -2779 -2272 -677 1709
2.0449 -1401 553 -1422 932 924 507 -1438 -261
2.0391 -1613 -1997 1366 -953 2243 -1720 -1145 -158
2.0332 -591 950 654 3 -1328 -675 2999 776
2.0273 57 1024 63 -1243 -672 2258 893 -443
2.0215 750 1656 1611 862 -546 1559 2162 -2474
2.0156 -1233 -2057 -2074 -775 -1705 550 -225 740
2.0098 909 -264 -6 542 -783 -2007 -1555 -2979
2.0039 -1516 759 -2179 1062 -140 -724 -1996 719
1.9980 -1124 588 -1049 1684 3030 -616 -1221 -1005
1.9922 -194 1618 52 -888 -1442 -1095 290 -181
1.9863 2376 2 -1481 31 -1256 -30 282 -678
1.9805 464 -1152 1651 -1706 2011 -313 -1190 -284
1.9746 -1096 -683 -614 1322 1340 -64 1341 116
1.9688 -3438 -64 -432 1045 -1772 3505 292 320
1.9629 -1113 74 308 -519 1272 1711 -694 -364
1.9570 -808 -2018 1523 1895 919 3273 600 527
1.9512 556 -231 1391 1193 670 68 1009 748
1.9453 271 -587 1971 -3289 909 1419 -486 605
1.9395 -175 -813 -3151 -257 -1605 1320 1442 -2573
1.9336 -2848 1835 873 1131 -3152 479 -137 1483
1.9277 1412 -5063 3041 -1344 473 -1126 -332 -2893
1.9219 278 -161 354 -856 -828 -489 -1332 -1401
1.9160 -1050 -1640 548 -1619 1779 -190 138 -2225
1.9102 6 1998 -1713 1944 -1213 -865 -951 1435
1.9043 2295 2657 1832 810 -1726 -364 -1983 -379
1.8984 419 2962 -395 -3095 -1681 678 1728 -2749
1.8926 -1091 -194 -1458 190 -1097 3152 -1522 -806
1.8867 1088 399 907 -707 2363 -1560 -1494 -250
1.8809 570 2829 676 7 -684 -151 -1374 1822
1.8750 1183 -739 1685 -366 -805 -283 -1191 -1088
1.8691 -1318 -895 812 -786 1035 1222 269 -425
1.8633 412 -695 815 1631 -1355 -1841 989 -2960
1.8574 -1157 956 -1665 -848 -632 -1315 -278 -1325
1.8516 1422 1860 -587 -2914 -1231 -945 -945 -1959
1.8457 -39 -211 1174 914 2053 -102 155 516
1.8398 606 1651 517 452 403 1254 2145 -521
1.8340 -1270 -75 -2573 276 -359 -763 -3053 1148
1.8281 -2629 2651 -999 -652 583 529 -2779 -1007
1.8223 1142 -1233 -1644 -778 624 1287 2648 -995
1.8164 -574 726 -27 -4497 -958 -1594 -671 53
1.8105 -1145 540 2645 -945 -1117 -65 1074 -1436
1.8047 -500 6 -494 4454 1611 30 440 -21
1.7988 -113 730 -93 -1700 609 -1049 -1060 -1578
1.7930 1043 -2625 -554 -76 -1619 83 -1466 -436
1.7871 1532 -2328 3351 -834 -403 218 1510 35
1.7812 908 159 1131 -1978 1261 -1970 -921 245
1.7754 -1250 -1395 -1825 -750 -1888 234 -743 -189
1.7695 -145 -1858 -2796 -1418 -697 -1397 -1298 -703
1.7637 -2030 -360 900 -1060 628 -2657 -646 256
1.7578 1749 -370 -2625 -2712 -490 2111 -775 -2090
1.7520 -100 1535 112 -550 1372 -1262 1405 -985
1.7461 -1642 -998 -455 393 -2134 590 -632 -1420
1.7402 915 -701 325 -1379 -306 -1510 2063 -2230
1.7344 611 1115 -911 92 -3882 1888 -177 -1069
1.7285 670 -178 -1315 1459 -1274 1778 -1204 -2273
1.7227 -1461 371 -1357 17 -156 1218 -1712 -1935
1.7168 1036 -530 -1171 -1068 -5295 1012 441 1796
1.7109 -2280 -977 -412 898 269 2146 356 -428
1.7051 -5 -2515 -903 267 2134 274 505 -1061
1.6992 563 -2419 463 -3798 68 -131 1071 1293
1.6934 26 561 -1065 2666 -2160 2070 -774 965
1.6875 -489 226 490 -2742 -2963 -783 -1501 -1050
1.6816 113 -1405 -1513 -145 -385 -668 -664 -3882
1.6758 4251 1296 -1371 -1587 1570 302 -1426 1283
1.6699 -1703 831 -1380 -597 -947 -2484 -1335 1581
1.6641 -306 146 1629 5796 1622 -1790 791 -493
1.6582 -121 -149 -1762 932 -612 1027 2945 1447
1.6523 684 -1263 1312 1406 538 -220 -2682 2551
1.6465 -1597 -1353 70 212 2570 27 -1462 -2132
1.6406 284 859 -235 -1313 1298 2137 -562 1717
1.6348 604 85 285 -1700 1803 -2535 -1390 344
1.6289 2021 777 2672 -311 818 933 1719 -697
1.6230 -1035 -549 -900 -1203 -135 61 -1317 -3098
1.6172 -1263 197 -523 932 1634 -1430 -3163 -2352
1.6113 -1045 -835 569 261 535 -779 -1397 -693
1.6055 -3167 -1126 943 1911 1495 1154 91 570
1.5996 -58 -313 -2123 -69 1045 789 -413 -957
1.5938 -23 -16 -114 3817 -32 685 2389 785
1.5879 -102 62 1384 1142 835 -936 -952 32
1.5820 -3075 3562 459 1196 -919 434 141 2202
1.5762 -757 447 -405 2849 -411 1315 -2801 2523
1.5703 578 -1893 2011 -387 -1016 -729 185 1340
1.5645 247 -841 1598 996 -199 1141 -3093 499
1.5586 1111 2307 -217 -2216 -233 165 56 -1678
1.5527 3043 2492 3434 -50 -17 934 719 1071
1.5469 1055 -2062 662 644 -1533 299 395 -1537
1.5410 2587 1003 -69 1331 -179 2452 1185 785
1.5352 855 1651 1417 170 284 288 -1121 -266
1.5293 2328 1063 -1112 707 2103 -286 -2227 2247
1.5234 -1039 1221 -3142 -958 -1567 509 2114 -614
1.5176 -120 -792 -582 -697 -1331 197 -110 -238
1.5117 1572 -1892 -2693 877 1850 -928 1276 -1980
1.5059 -497 -442 21 -976 -303 -1101 934 -736
1.5000 696 212 2323 180 -2041 -3127 -2560 -324
1.4941 484 -824 1291 926 57 1353 214 1806
1.4883 465 -1032 -1511 -1451 -345 -922 1053 -1253
1.4824 -38 375 -939 -1438 2499 295 -1684 2335
1.4766 745 684 -115 1533 3261 231 650 90
1.4707 1782 -114 589 1330 -407 -983 -1655 126
1.4648 3652 2750 -2393 -3832 -2724 -2154 445 29
1.4590 737 1561 4426 -366 -223 -724 -2892 870
1.4531 2698 1426 704 -72 -208 -1101 -2101 -1008
1.4473 974 2606 25 1034 1418 35 -1937 -545
1.4414 208 -2331 -460 2910 -330 -1136 -1356 103
1.4355 -2309 -112 2641 1711 338 16 2698 -504
1.4297 -1710 -2923 -2092 -3255 -680 125 993 -590
1.4238 -1310 257 -2184 1973 -603 -954 -1757 63
1.4180 1157 -633 401 401 750 -1589 -44 4400
1.4121 1216 -69 76 -2108 2211 -201 324 -1331
1.4062 3147 -2630 -2404 -1179 -1059 -780 -2326 -1820
1.4004 -1789 -3187 -473 -292 97 -394 -427 -1289
1.3945 535 -24 433 -2035 -695 1436 78 1405
1.3887 129 2075 3451 -1926 -2630 -3516 3519 -777
1.3828 -2721 -108 -45 -219 1309 -954 -951 461
1.3770 243 -1780 -962 -591 657 -560 257 -824
1.3711 -601 926 1230 2518 -104 714 176 -2104
1.3652 2560 -711 2008 272 976 1300 1218 -56
1.3594 -2046 -779 -992 512 894 2146 389 -911
1.3535 2125 162 -1877 -1161 2248 3200 1044 -1507
1.3477 1914 -1232 40 -703 -483 -60 999 1271
1.3418 1154 -1087 732 -103 -536 410 -607 966
1.3359 -318 237 1939 -1569 653 219 2200 1362
1.3301 -1796 803 -2548 1279 -2113 711 599 -315
1.3242 2425 2410 -219 -1067 -132 224 987 1353
1.3184 -1775 1369 -510 -1781 1691 -643 -319 2026
1.3125 -2412 889 -1768 -967 1930 1961 1367 -466
1.3066 1066 -1108 -3283 -677 -582 778 -731 282
1.3008 -317 565 -787 2156 -1200 3181 743 1494
1.2949 384 3085 15 -339 -334 313 2819 1007
1.2891 -4385 1817 326 -2361 -306 -1258 2 630
1.2832 259 3686 962 -596 71 86 882 130
1.2773 3101 -142 -553 -437 -1434 1543 1819 761
1.2715 1349 -1912 384 -2823 10 283 -1183 4407
1.2656 965 1150 1808 1419 -2327 294 1037 -118
1.2598 736 543 -19 833 282 1066 -526 248
1.2539 2321 -1452 -386 -1795 -1033 -750 2455 1741
1.2480 356 -1915 -1082 -961 2153 -408 -1790 1271
1.2422 -1710 -1993 -4847 -463 584 -315 437 2344
1.2363 -732 611 -128 -1360 1035 -534 1741 1157
1.2305 734 -734 2150 -905 -2291 225 -398 -1992
1.2246 -1978 -1516 512 -134 623 -2124 -1828 1483
1.2188 2127 1046 -162 228 -1351 -1978 564 2626
1.2129 -1036 1444 -944 3249 -501 -1869 -264 203
1.2070 -1987 -2111 4500 -817 -2507 -519 -1741 2055
1.2012 -1640 1366 1927 1069 -1075 47 -64 1029
1.1953 1328 -954 -4531 592 -846 2218 421 251
1.1895 -547 297 -2327 174 1334 -390 -593 -2721
1.1836 -1470 795 -2698 -246 451 -1577 -1784 2399
1.1777 -273 -2848 -215 2566 -755 -311 2261 -302
1.1719 984 2536 550 316 8 -493 850 -569
1.1660 -1226 476 883 -495 -2488 888 550 -19
1.1602 24 638 -2789 -755 574 -2872 -1022 614
1.1543 150 -3408 1097 1011 -1519 -1382 -2845 866
1.1484 -202 261 -1472 1397 -284 1386 155 1303
1.1426 754 781 1373 -1643 1315 -1838 -2749 631
1.1367 -2148 418 284 2267 -1120 -94 806 -1432
1.1309 -2185 -687 2198 -1659 -1331 1091 1685 124
1.1250 -4567 1022 -1406 -744 1168 816 -1034 -718
1.1191 972 -1678 -66 -1181 -1302 57 -768 -1935
1.1133 -985 45 69 -1513 -119 1999 431 -502
1.1074 -1395 -297 -421 1610 -299 -134 2167 -1733
1.1016 56 -287 -829 411 -685 -766 1 -938
1.0957 850 2306 -191 2494 -30 -240 -752 -263
1.0898 990 -1773 33 396 -1397 1370 -627 1647
1.0840 332 -1798 1318 -802 2125 -515 1461 940
1.0781 -96 933 1592 1463 -897 -1098 -2923 1763
1.0723 1065 677 841 3964 1239 -836 -19 911
1.0664 1302 -1018 1320 -800 -351 -1903 -1077 -1783
1.0605 -1205 1677 -262 -4531 -968 1743 27 -1112
1.0547 -1427 -838 -1829 -1173 -1843 -2712 251 114
1.0488 1416 -1592 291 -2454 1491 334 -1634 1625
1.0430 1292 2250 -1155 -961 598 1216 292 861
1.0371 -679 666 557 1560 -395 1528 30 1484
1.0312 -1535 1453 424 -2325 2642 -3819 -646 1570
1.0254 -1829 -1677 46 1158 1020 1496 -982 750
1.0195 557 -21 -936 -167 -248 -2452 951 370
1.0137 1383 764 -1888 -1136 522 -349 201 1353
1.0078 -671 -1241 736 -46 1380 3275 -1182 354
1.0020 -68 1173 -134 -1246 247 125 1083 1080
0.9961 2621 -1933 528 -1171 1754 1584 1403 -331
0.9902 987 -748 1326 1278 -680 -389 -911 -324
0.9844 -19 2174 -394 -2628 77 -1122 1033 3204
0.9785 156 -2085 1073 -918 1460 882 -1570 1085
0.9727 966 -301 1158 -1434 -2123 76 -537 140
0.9668 -1775 826 850 -1031 -667 554 -1711 371
0.9609 2033 136 -1702 2011 -333 53 215 623
0.9551 728 827 765 -1654 -476 630 1072 1434
0.9492 -912 -630 2634 -1013 437 663 2737 -1833
0.9434 -27 -406 525 978 1046 -209 2549 -769
0.9375 -726 -1911 2853 1286 1169 -1289 1793 1195
0.9316 433 -572 1686 579 1411 -232 248 1850
0.9258 1931 -908 -2370 1137 1090 -1410 949 522
0.9199 938 -1316 -2189 440 716 668 35 -129
0.9141 -1421 -3406 -430 -1252 -893 2014 1793 -3336
0.9082 691 -948 -1090 3989 -2883 635 559 693
0.9023 308 851 -329 2000 -528 -1888 -502 -1921
0.8965 -604 1261 829 -1871 -1014 -819 40 -2351
0.8906 2545 383 -3245 591 -300 -2288 -1222 -918
0.8848 1126 -1679 724 1787 847 -1810 -786 -1800
0.8789 479 2050 -1202 1571 -325 408 2317 -947
0.8730 -2410 516 489 -2181 617 -198 917 3330
0.8672 -629 1195 1965 319 409 -3241 3354 -945
0.8613 -1961 2408 1636 2833 -587 -670 -164 682
0.8555 -888 1026 1069 1750 -420 -200 -298 -1364
0.8496 -677 -2432 -181 -1265 -270 1683 1669 -2851
0.8438 -2345 -1093 1077 -567 435 -1659 164 129
0.8379 -31 -892 2404 261 182 -1416 1014 -451
0.8320 -1163 -1835 1102 -2961 1524 -1457 -1961 -1232
0.8262 574 -1195 -1172 -2071 -612 -980 -574 -161
0.8203 -357 -213 1963 2158 -635 -52 -596 1481
0.8145 -272 725 2813 -376 3516 -1851 -956 -224
0.8086 -2769 -239 -1292 -1188 -720 57 -1690 -27
0.8027 -2016 -125 -699 -1138 1392 969 -686 -3230
0.7969 1686 495 -1074 299 -778 720 -1218 -2654
0.7910 -2619 -699 3587 1018 1700 1430 -1609 320
0.7852 174 1479 -1374 1654 1220 -1519 2665 280
0.7793 -348 -258 -1449 -713 -167 1040 -1606 1694
0.7734 1844 -2633 3199 2403 72 1713 304 2760
0.7676 1077 -1663 -81 -372 -2271 199 637 -265
0.7617 2926 1367 -1093 175 702 -1423 -35 -351
0.7559 1547 687 1607 212 3600 -2151 -2295 56
0.7500 525 634 750 1837 1791 -1113 -1804 -374
0.7441 -1452 1170 901 2604 240 1214 1496 -3534
0.7383 -3264 508 -1105 3373 4257 -1029 -471 -2058
0.7324 -2035 536 712 -1405 -2706 750 287 915
0.7266 329 1343 411 1490 830 -2303 500 -1466
0.7207 233 -1046 192 -613 -2144 -83 -189 937
0.7148 -3437 -502 -3938 758 358 -1518 -133 -1204
0.7090 -842 -778 399 -307 413 -2750 -930 -1137
0.7031 -631 911 -271 1469 275 -5 1967 -929
0.6973 -1675 86 -1244 976 123 2516 67 -502
0.6914 -933 12 -1195 -1947 832 -1023 64 -1664
0.6855 346 1127 23 -885 -1039 1140 2104 22
0.6797 1313 -889 -3193 1062 1440 510 -256 4345
0.6738 -85 188 352 2339 -2344 -747 -2286 -2666
0.6680 -1830 -2052 676 -475 1081 -619 -2150 -963
0.6621 -1920 234 931 635 1250 1385 -1489 -694
0.6562 304 999 -953 -201 -875 2097 404 282
0.6504 -928 -1195 -4103 2151 1445 362 622 -77
0.6445 867 -809 151 215 -1186 2193 -2866 -739
0.6387 444 -856 2126 -1355 717 -444 -623 791
0.6328 -255 -146 -2342 -1408 2148 -1789 -250 -37
0.6270 -117 699 1762 -357 1692 1194 -2005 -698
0.6211 -1337 1294 3323 892 1616 -951 949 727
0.6152 -1467 -129 -2389 1896 -984 -14 564 48
0.6094 -276 2519 -952 -897 -104 -3214 -114 -680
0.6035 -840 -168 260 2495 330 -23 -933 369
0.5977 -2721 -1977 1503 272 1639 -1568 2947 1366
0.5918 -923 -2084 -1777 12 867 618 454 713
0.5859 -1768 2202 2733 -3418 -639 -743 1450 1073
0.5801 234 -2327 -1502 -1148 151 -193 -1110 1483
0.5742 974 2091 -483 769 610 2746 1464 688
0.5684 351 2672 2018 1105 378 1610 2245 -1821
0.5625 182 -3060 1045 -1436 -198 -441 1837 -2684
0.5566 -1264 71 604 -438 2829 -3825 -1328 -728
0.5508 1045 -504 -847 -588 1194 -2005 189 -2250
0.5449 -1174 -85 3184 -407 -1165 87 3910 687
0.5391 525 -225 -1197 191 2132 -3807 974 -1745
0.5332 59 1920 453 1735 -145 350 -330 -1041
0.5273 87 1882 -708 -1429 -498 -1542 -2742 -1238
0.5215 4030 574 -554 2263 -58 1076 -1821 -2623
0.5156 1812 -281 -55 647 -329 2984 -1396 695
0.5098 1409 -967 994 -1913 1024 1511 1516 -1941
0.5039 -669 726 -149 -733 -985 1788 1328 -636
0.4980 2267 -382 944 3238 -1429 -195 749 -590
0.4922 -515 330 -1783 -360 2658 -145 -530 3044
0.4863 400 -426 217 860 398 -2320 17 2349
0.4805 724 2070 -1315 -686 -318 -287 1141 1268
0.4746 782 -1362 -1870 -1571 -321 -2648 -249 -100
0.4688 948 1224 -1953 -529 899 261 140 1787
0.4629 -20 1563 70 -660 -1481 2243 1039 923
0.4570 -3669 3473 2125 -233 -555 41 150 -345
0.4512 378 312 -123 -2024 641 -656 -1541 1763
0.4453 -1289 -89 -1690 -983 1021 -539 -1274 1452
0.4395 -1127 792 -837 -252 -492 -1368 937 -583
0.4336 1791 -583 -654 -1796 128 959 -483 469
0.4277 2040 -594 -2793 241 -575 -1536 592 904
0.4219 1885 -1733 552 1305 -1631 1293 -1302 1449
0.4160 -226 1575 -1927 167 -946 -729 74 133
0.4102 -1218 -1581 128 -1730 806 -563 2321 1958
0.4043 1082 264 319 -130 -1275 -1171 -1619 4010
0.3984 43 -965 -478 -1554 979 17 -3016 -1062
0.3926 1381 -1432 1470 906 -669 -106 -930 -1171
0.3867 -111 -644 -811 -441 -328 2222 -2658 529
0.3809 -1772 -2399 1277 2113 934 -2372 2614 2
0.3750 -89 -175 -243 93 -2235 -1410 1604 296
0.3691 1030 -1626 -1064 -1592 -1149 -369 -2510 -1447
0.3633 -1492 -1922 -621 -1076 -1032 2636 -2382 -252
0.3574 -1347 -199 -36 -256 2255 -376 -66 529
0.3516 1224 1099 -281 50 -2185 -795 759 -1240
0.3457 -272 202 -2184 -1297 -1237 519 1842 3083
0.3398 1612 -1979 1204 -467 -448 -2683 2788 2354
0.3340 -954 716 -508 -1022 895 603 112 -879
0.3281 160 -380 303 1639 -4294 -218 -2182 1167
0.3223 -860 -982 2748 -252 -1056 873 -181 553
0.3164 -1277 899 1768 1405 448 234 880 923
0.3105 213 346 649 -1050 -3584 146 246 1819
0.3047 -1052 1254 590 -851 -2429 942 2103 -1597
0.2988 1773 50 103 917 -807 -3332 -1393 2603
0.2930 301 -3830 -1955 -622 908 -927 -439 1163
0.2871 -469 -18 -2784 969 2643 -954 1562 -1449
0.2812 2687 281 -3100 1119 -1495 3231 563 2681
0.2754 -532 278 -256 -742 -517 104 1883 -609
0.2695 1881 762 -64 -523 739 358 -2708 -1354
0.2637 -1017 -1934 1382 1061 -717 -774 1169 820
0.2578 -1438 1147 -976 612 -6 -566 -543 295
0.2520 628 257 1096 1778 -92 4156 1733 440
0.2461 922 3892 613 1641 -771 -267 -1627 -1241
0.2402 1466 860 -787 4275 -818 -1660 1964 -1180
0.2344 -1823 -1705 1418 504 197 -1506 -501 -679
0.2285 2218 -2102 3070 1494 -2429 1281 154 3983
0.2227 1103 -407 1716 -869 -2650 -258 -965 2955
0.2168 -1318 -806 729 -2133 -250 2368 767 1366
0.2109 436 1072 -433 -3645 651 842 -483 307
0.2051 203 1328 -298 1370 3203 365 -1645 -660
0.1992 1804 -1216 -743 -920 -2846 380 -1877 -2310
0.1934 -4292 92 -1270 -758 -1720 2324 1556 1192
0.1875 1039 233 -2417 1455 -1079 -1347 273 -1163
0.1816 -1910 -1431 2054 2573 -3 -1093 510 42
0.1758 2593 776 852 -635 3048 -269 -1039 -1798
0.1699 -1900 339 -2877 -1834 -587 -1435 1697 233
0.1641 -1816 1046 -181 164 -5081 -527 -745 1746
0.1582 290 -809 -3746 -357 1195 -89 587 -42
0.1523 1790 1139 -1854 -1320 -844 -250 2687 -1918
0.1465 329 1437 1590 1281 -2475 -1993 1117 -996
0.1406 -2405 -950 -206 -3291 698 -581 -666 -729
0.1348 988 1380 -2130 -863 1650 -165 621 -1691
0.1289 -1350 2999 -405 1457 -2703 1638 1355 1275
0.1230 2209 1574 851 -2062 -890 -730 -2260 749
0.1172 -265 345 -1594 416 -174 1545 -1115 315
0.1113 -3022 776 -1 957 -251 -2186 -651 8
0.1055 -3036 -2290 -1751 1155 3203 -144 958 162
0.0996 980 1864 -2570 -621 -1236 1217 -750 906
0.0938 1091 -738 -463 -868 332 2029 1625 1411
0.0879 -3430 -2747 -2042 -1358 541 229 4029 -775
0.0820 -580 -191 -4200 357 655 1120 884 -583
0.0762 1101 1054 -1289 -1246 -3588 -657 -571 2444
0.0703 20 -663 -809 -126 -4396 -1592 230 1461
0.0645 707 355 -1114 -1767 -2949 22 125 20
0.0586 -873 -479 -432 -354 -410 -1318 -2040 760
0.0527 603 1631 1107 -162 -2056 329 1445 16
0.0469 1774 1346 156 262 -1229 -216 -995 -1460
0.0410 285 3003 -149 2508 500 -581 2920 970
0.0352 160 -698 665 5021 126 2797 1012 967
0.0293 -737 -14 -1877 -497 -897 1276 -1952 -540
0.0234 1511 -1183 1418 -2962 -1452 -629 -260 -506
0.0176 1399 654 969 2298 -1329 -1416 415 -626
0.0117 2090 -1438 -313 -1279 568 968 -1308 2334
0.0059 302 -815 3765 -1252 -133 -2450 453 -680
##END=
