##TITLE=Unknown B
##JCAMP-DX=4.24
##DATA TYPE=NMR SPECTRUM
##ORIGIN=NMR Analyzer teaching set
##OWNER=public domain
##.OBSERVE FREQUENCY=400.0000
##.OBSERVE NUCLEUS=^1H
##.SOLVENT NAME=CDCl3
##XUNITS=PPM
##YUNITS=ARBITRARY UNITS
##FIRSTX=12.000000
##LASTX=0.000732
##NPOINTS=16384
##XFACTOR=1.0
##YFACTOR=3.91099313E-02
##FIRSTY=7.566854E+01
##XYDATA=(X++(Y..Y))
12.0000 1935 2177 100 -1148 -1640 47 -1535 -2158
11.9941 300 201 821 -1372 8 -97 -2261 808
11.9883 482 3588 305 -217 1852 299 1365 -549
11.9824 328 1538 1046 193 -1625 669 116 1082
11.9766 325 1634 -77 304 1002 -1632 -603 -751
11.9707 2975 -139 980 930 -422 -2329 1449 -611
11.9648 1078 -1960 -658 1888 2149 -1956 -2001 -66
11.9590 1094 241 456 -1485 881 1677 -654 -2153
11.9531 -1139 1144 -2603 -138 -1488 -197 -367 24
11.9473 2255 632 2003 -212 -720 569 -4258 -60
11.9414 241 -1855 698 -840 -3693 -320 -1470 -782
11.9355 -228 1879 155 -43 584 -2721 1863 -1617
11.9297 660 -1692 -1466 -595 2847 1048 -907 -427
11.9238 -1729 -51 -860 1084 -2038 -502 -1264 -1079
11.9180 1068 190 879 1786 1727 -2060 807 -2645
11.9121 -96 2882 -291 -554 256 27 40 -1137
11.9062 1625 1335 -318 473 989 1550 590 1044
11.9004 -395 -1606 -744 1531 1469 220 -852 462
11.8945 2498 2034 -1026 -65 -2180 -1705 283 37
11.8887 1449 1904 1254 1982 -821 -1695 752 4023
11.8828 536 -1729 364 2141 -1553 1207 -918 1912
11.8770 1180 457 3004 -614 -1030 2786 -1316 3302
11.8711 -60 -1557 -3 196 302 -288 1624 -3484
11.8652 -833 -393 2733 -2992 -510 -1716 -998 962
11.8594 617 2163 -900 404 1762 1357 -504 1694
11.8535 -1387 2708 232 -169 407 1275 2616 -213
11.8477 -552 881 -1309 -2547 1256 -570 1692 -1542
11.8418 -4349 425 233 2404 789 465 881 -551
11.8359 117 -2030 780 -1209 -669 1051 1375 -1512
11.8301 3010 -888 1254 1429 337 259 2699 1337
11.8242 669 -2739 -1122 1746 292 -1434 -965 -460
11.8184 1031 581 1498 -1227 1481 -753 -449 2603
11.8125 112 -209 -316 -578 2342 2068 1077 277
11.8066 1566 -116 680 604 134 2476 2636 1988
11.8008 -2873 2757 1055 -676 -36 1710 1765 1284
11.7949 212 54 1250 -137 -1348 -936 -209 500
11.7891 3400 -2057 717 -137 452 2034 1865 -236
11.7832 -837 -2047 -107 1873 -398 1057 1064 597
11.7773 1628 -170 -1245 -1761 1392 -543 -467 1253
11.7715 -1185 2659 1001 -791 -951 1625 -1778 -962
11.7656 10 305 23 582 -546 -182 1900 970
11.7598 -675 2575 -2989 127 1004 1461 168 -578
11.7539 880 -290 713 -4290 573 -1187 1413 1123
11.7480 1095 -607 652 -514 323 -203 -1308 2969
11.7422 1087 -3088 1342 -2093 -348 -874 -803 362
11.7363 -489 -2175 -9 548 2658 -622 -1786 -571
11.7305 981 -1327 -1083 832 -16 334 -944 -1240
11.7246 -486 -231 -502 648 822 823 720 -1330
11.7188 -1681 1204 19 183 -1742 -317 -957 -1298
11.7129 -946 -2244 128 1751 -1063 142 -1640 1009
11.7070 2799 -1852 -342 2139 553 173 -3068 -226
11.7012 1379 2157 963 -870 -1031 -2732 -1615 1686
11.6953 -172 -2010 1981 -2512 1894 -485 510 1021
11.6895 394 1910 24 -491 -994 -2170 -1043 1475
11.6836 1240 2090 4097 1072 753 -1974 -364 3298
11.6777 796 -207 465 -2847 -1253 -1966 -3211 1155
11.6719 1450 -265 520 -1512 680 1146 2305 2344
11.6660 732 -191 -1240 -909 927 850 28 2499
11.6602 974 25 -287 116 -1425 -1471 522 -878
11.6543 -407 1833 -290 1973 -12 2278 698 -2640
11.6484 1860 -311 -2950 171 234 -1938 -912 822
11.6426 2121 1713 1836 1683 -3731 -1091 281 -4037
11.6367 1157 1339 -1164 -571 -1410 -27 -61 -11
11.6309 -1534 582 -512 1428 470 -2228 -2166 105
11.6250 -728 706 1211 30 -2531 -1794 860 -1577
11.6191 1666 -136 781 -1327 -150 -4447 -312 863
11.6133 -1347 -1265 -80 98 -1213 1015 -2471 1674
11.6074 -2107 -1236 2000 -1493 -2483 114 -1381 -1677
11.6016 -1053 -1117 -1464 -1545 2421 -1009 1459 -2110
11.5957 818 -1878 -688 955 -797 -2950 -829 -236
11.5898 861 -1499 -448 94 -2476 -160 -1243 658
11.5840 -165 -250 -3626 -163 -556 -1417 -766 -1898
11.5781 262 991 897 -780 2523 1283 -1424 -209
11.5723 -2447 -177 1070 1906 -628 -2686 -255 2044
11.5664 216 1915 1243 2343 899 -998 670 3811
11.5605 -778 -2787 3160 614 -941 -911 -2313 1057
11.5547 215 -950 -635 -642 1603 -274 2072 -1258
11.5488 -919 -725 -809 -136 1540 1817 -1610 1920
11.5430 143 2386 -252 -1257 1186 936 -688 33
11.5371 196 468 -2575 -1810 84 391 -787 -2643
11.5312 2018 -462 -1572 2395 1701 1559 1254 855
11.5254 -1462 46 534 951 714 -1513 -908 -499
11.5195 -294 -1312 -2738 -1826 462 -16 871 -2834
11.5137 -625 1338 -2946 -1626 -2501 1819 47 -862
11.5078 225 -135 1359 1756 1374 516 1147 1221
11.5020 1750 -2758 519 118 240 -374 -111 743
11.4961 299 193 -1611 -1887 -1123 -2677 -775 -1275
11.4902 -2698 -2911 -705 -871 3265 1297 -1174 -750
11.4844 -1518 -1183 -527 -74 -936 1235 968 2938
11.4785 -1966 1016 -562 -2412 -453 -2467 -41 4111
11.4727 1960 2734 1794 -2325 621 214 653 -1559
11.4668 -2977 3160 1791 461 -737 274 -1862 1442
11.4609 248 -226 -646 -100 198 -604 1445 316
11.4551 -142 -1294 1829 1948 1035 -2769 -523 1491
11.4492 56 1916 -658 1197 788 -3674 -610 -356
11.4434 -941 -1341 2388 -180 1186 -2011 -3121 -710
11.4375 612 -1086 797 1205 -674 -89 -1108 1622
11.4316 2656 746 -758 -1059 -418 1337 -1137 2222
11.4258 -1835 -12 1979 2679 -611 1190 3800 1755
11.4199 -3291 422 3569 -1745 1372 -3135 2385 -1266
11.4141 1213 1369 -4177 -2148 496 -2287 -30 -1422
11.4082 2017 -765 -1374 965 1836 -235 421 740
11.4023 -742 -1783 800 -530 -2055 1284 653 213
11.3965 -1132 -334 916 728 -1238 -1355 515 277
11.3906 1274 -1739 1384 2649 1426 197 1361 -1933
11.3848 -666 3093 -2455 -1738 1236 -986 -848 -1681
11.3789 2527 -914 -417 -2723 1157 -13 749 2374
11.3730 230 -1790 -1522 124 1984 -1800 -370 -218
11.3672 988 -1338 468 1177 -57 -147 930 873
11.3613 1890 -1620 1848 -343 -1710 -831 -1852 -301
11.3555 1553 -3378 -1775 1154 -452 1191 -1993 -79
11.3496 -3913 -1271 1111 1826 2450 -84 -1318 -579
11.3438 -2880 2035 1769 -1366 2751 -2031 841 -1214
11.3379 -2610 595 -1740 1793 -1351 159 -719 204
11.3320 -949 1232 917 105 -190 2961 -1045 -659
11.3262 1160 -16 -2454 -213 -577 -1493 293 -1707
11.3203 -376 -1705 2346 -424 664 430 1060 -226
11.3145 1132 188 -3673 469 -1940 1426 328 -560
11.3086 -3789 -3211 -1767 -569 -2072 2980 688 -133
11.3027 -1481 -510 -356 -665 -117 1209 -2645 339
11.2969 1655 -2056 -284 -575 -1717 1426 -490 1720
11.2910 618 -419 432 -564 -2464 2136 550 1737
11.2852 -2720 1572 1238 -61 -3185 151 -1003 -290
11.2793 83 -1359 -196 18 2193 -152 3531 -1776
11.2734 -206 1862 -2360 930 594 -904 -361 2323
11.2676 -674 418 649 1814 -3104 -2211 -2014 -421
11.2617 922 1249 -431 2276 -111 1038 -1141 1252
11.2559 -1080 1741 1296 2808 -638 -1744 1246 477
11.2500 -794 -2010 1202 -2928 -699 1607 -378 689
11.2441 737 892 1590 982 -563 -1848 -428 -986
11.2383 608 1847 1176 -1045 302 8 -707 1952
11.2324 924 543 -1836 -3946 -1102 1712 -322 -37
11.2266 -395 722 -13 2575 -182 -394 2134 1128
11.2207 1046 792 -58 477 806 160 -2821 2069
11.2148 -721 -854 -513 -1085 -1317 -126 1328 -443
11.2090 710 -2029 1135 -1707 1051 -1113 -902 -1886
11.2031 -1907 -335 -1464 -334 1707 -1267 -476 -152
11.1973 -930 -50 350 1566 -1093 -324 -242 1830
11.1914 -1504 256 1155 881 -1063 -1553 -2780 -803
11.1855 -383 -2249 1266 245 -360 -796 711 -430
11.1797 761 -722 1587 -2446 -1609 2704 1569 2464
11.1738 -1190 1094 1503 1374 -275 2210 624 -1945
11.1680 3701 191 1887 -1042 -1402 1325 1235 -1118
11.1621 371 -1995 -3088 1641 -1719 1115 1600 557
11.1562 2280 546 441 2 631 530 -1407 -71
11.1504 -564 4270 1842 -1185 894 -2632 83 2729
11.1445 124 1927 -553 688 562 -3297 -1204 2847
11.1387 -1250 1809 2582 -68 1508 550 -893 879
11.1328 654 -1482 -668 -2024 -506 -60 -1471 -2801
11.1270 1012 1903 -1367 108 -1005 -3958 3175 435
11.1211 -2113 1905 1087 2123 1101 796 2157 -412
11.1152 360 -1631 -1720 316 349 -2381 560 1519
11.1094 -1887 -510 2575 -1276 859 1180 268 219
11.1035 852 432 225 -2216 367 -1183 2248 3331
11.0977 1673 -3230 1499 178 -1635 -1826 1592 -973
11.0918 -120 99 1415 -4019 1848 -1217 -609 928
11.0859 551 -3472 905 -230 -1549 -920 -2398 1177
11.0801 2218 -947 -706 -2189 -1061 -1531 35 2611
11.0742 1582 1469 -1459 1255 -1081 -1331 1100 -152
11.0684 3733 286 -460 1122 -1741 1022 2346 -205
11.0625 -773 1689 -1681 562 -790 451 -1181 911
11.0566 844 2636 -548 664 -2647 -1182 400 -2056
11.0508 -161 -1349 720 901 -710 986 -835 172
11.0449 784 837 891 2551 -971 -233 -2748 1310
11.0391 -1685 -894 -769 626 -424 -426 117 -503
11.0332 -34 -1474 -827 -1829 1286 1355 997 502
11.0273 -906 834 -2326 -3757 -1784 2246 368 2332
11.0215 -1071 1520 2390 1487 429 1620 -685 2651
11.0156 -1734 -1140 35 -1151 2634 1010 -1100 2517
11.0098 2038 -569 2347 1781 -754 -839 468 1726
11.0039 2359 2259 -727 -2681 -2535 2269 1588 1778
10.9980 -3 128 731 694 123 -1458 -2057 234
10.9922 -237 2129 -1602 -2984 -2952 -53 2518 -517
10.9863 -1053 569 2315 1632 1320 1399 -436 130
10.9805 621 2725 -3312 -821 559 -364 -193 -399
10.9746 -1434 758 1947 -540 660 1668 -985 -136
10.9688 -1957 2375 2584 -302 3001 1288 -2750 735
10.9629 377 761 1026 -681 1707 474 2849 -169
10.9570 -3765 2872 834 -2762 -913 -1194 1406 -945
10.9512 1746 -760 1444 -917 -1794 889 -350 779
10.9453 -2480 -1559 -522 2960 601 -2526 -4730 2793
10.9395 500 -1901 1484 1284 3225 293 -746 1232
10.9336 -2031 -672 -1501 -859 -1933 -2175 -1668 587
10.9277 46 -115 709 1128 718 3114 429 576
10.9219 -733 1633 2151 -4461 1229 -1650 529 128
10.9160 -1894 -2035 -385 3944 -1863 -610 -435 -402
10.9102 1690 3092 -68 623 -489 2367 -83 1030
10.9043 -291 1694 -99 -1268 2871 -2925 260 -533
10.8984 -1369 3140 510 -620 -1335 508 -5 -362
10.8926 -999 2292 328 -282 -1884 -1168 1102 -1131
10.8867 982 -167 596 524 -656 -397 -103 988
10.8809 3617 1310 -1969 3335 -177 -1043 188 -84
10.8750 382 -44 -39 1903 2551 148 2386 1404
10.8691 1796 403 313 1200 -1444 87 -1701 1373
10.8633 321 895 -505 -1155 1445 -647 -320 53
10.8574 701 92 -1563 -1575 1527 -473 -362 -1329
10.8516 1402 704 -811 -2587 2710 -843 -1749 -739
10.8457 -1711 -11 -831 -1782 1024 -1284 -2790 511
10.8398 -824 -1634 -2505 -1055 -908 -726 -756 1901
10.8340 1593 472 850 -685 -2187 801 2069 -1046
10.8281 -1039 -1050 -1987 826 -1630 2067 2503 129
10.8223 -64 -1283 1359 128 -2237 -1403 705 -747
10.8164 661 373 2158 -148 1593 1661 1988 -517
10.8105 421 3824 -292 -909 181 -1769 -1280 -643
10.8047 -425 1510 -1647 -276 394 -439 1115 3357
10.7988 -1622 -1305 -769 -816 -813 634 2619 3701
10.7930 -120 -3085 2345 22 -620 1650 -171 -337
10.7871 -1312 1385 1270 -1279 -841 1862 -1080 -626
10.7812 -1152 -359 1293 92 1497 903 -3034 -22
10.7754 -32 -2498 1176 -76 -757 780 1446 1085
10.7695 -789 -56 3679 -1946 109 50 2255 923
10.7637 334 -444 1864 105 -145 254 1034 58
10.7578 388 1196 -1085 -357 107 1028 841 -722
10.7520 -1550 -561 -751 1339 956 97 -1619 -1960
10.7461 185 918 566 -380 857 -2959 1723 2259
10.7402 262 361 -311 1345 -1373 -866 599 -2138
10.7344 740 688 -18 -745 2624 -804 233 1211
10.7285 -21 1575 4 385 -11 989 -970 1338
10.7227 1553 -1565 -2246 -1992 -1197 1036 98 2827
10.7168 2370 -2300 -583 -452 2412 1178 1393 -1220
10.7109 3050 -1657 44 -1444 -1346 379 -1346 1031
10.7051 780 85 957 1691 1638 -1709 981 1341
10.6992 -564 -580 1813 992 198 2153 1399 2605
10.6934 -582 1478 -2978 -967 2508 -1454 -227 -521
10.6875 719 1713 2407 -225 505 1316 1739 -417
10.6816 2036 -2159 419 -2067 -693 -1186 2661 2512
10.6758 1169 243 -2933 -2550 281 1096 772 -1091
10.6699 -1162 813 3411 1096 -56 -166 664 465
10.6641 -2145 2317 685 837 -676 1664 1521 -1088
10.6582 1543 -1068 -2769 1259 -1489 -829 -1403 -110
10.6523 -538 241 708 2448 686 764 737 1221
10.6465 1353 433 -1744 -1437 431 -474 -614 -780
10.6406 -1078 1643 1175 -1905 285 -26 -693 1573
10.6348 480 112 -1287 1428 373 425 -1035 2243
10.6289 -4644 -2085 -2494 -1937 -1542 -760 -498 293
10.6230 2032 848 187 -227 568 1212 -1098 2627
10.6172 -19 1284 -3674 288 -587 2046 1522 480
10.6113 944 -464 -1357 1717 -1802 -787 -1748 -1420
10.6055 -616 1255 -1456 1101 -2789 -1249 -1301 999
10.5996 1984 -3470 109 2430 37 2469 1735 429
10.5938 -2107 -991 2319 -1331 -1624 -679 1899 159
10.5879 -2285 -942 1015 1726 2291 770 701 -1451
10.5820 -844 -2045 -213 610 71 -1409 858 1378
10.5762 1857 -3234 -3623 -1631 807 1546 1095 58
10.5703 376 -368 -1012 -1479 4759 -372 837 820
10.5645 1342 -72 1400 2999 -955 -865 -1494 -531
10.5586 -1837 497 1003 1819 1932 -559 286 -1190
10.5527 97 141 751 -88 -1596 1500 -201 -2074
10.5469 -2562 1023 -2667 1011 2266 801 1218 854
10.5410 -892 332 -2790 927 961 224 1623 -250
10.5352 -2551 2118 151 -915 -773 -546 309 -1889
10.5293 166 -524 977 -474 952 -1312 533 -447
10.5234 1593 560 1523 -711 -898 -42 -1533 -404
10.5176 1882 -1598 -844 119 2434 3177 -821 -688
10.5117 392 -972 -2947 877 558 424 815 280
10.5059 -932 939 -47 250 -1625 132 -73 -1274
10.5000 -1136 -635 18 -928 -1627 110 -1804 479
10.4941 -1276 -294 1659 -3301 -1988 -773 -217 -1300
10.4883 -1400 -917 -1496 147 -1026 -237 57 1003
10.4824 -934 -630 624 -3200 82 -1337 1292 -486
10.4766 -1302 1544 -819 -1303 673 -2865 -257 1040
10.4707 -1859 1398 -450 -817 -2476 2083 1981 -509
10.4648 541 -2822 97 546 -1132 -953 -305 -1214
10.4590 -2497 1101 1281 851 1060 1523 -479 -4407
10.4531 19 -838 -1732 724 -1512 -1776 3536 -598
10.4473 228 853 873 -166 744 -150 -682 -403
10.4414 903 1009 635 -2249 -334 744 -586 721
10.4355 166 1753 -3388 241 1566 991 -765 -330
10.4297 -523 629 1092 -861 1566 676 -3085 -569
10.4238 -196 -1001 127 -82 -143 -416 413 -881
10.4180 806 -2631 98 -718 -572 415 -941 -4715
10.4121 -2159 -310 -414 -722 -961 1006 7 -1546
10.4062 -1280 1398 151 531 24 308 -804 -1451
10.4004 -1445 -1301 2601 922 78 -168 -2386 1120
10.3945 -2566 1509 -745 -2078 2166 -1456 -402 -237
10.3887 -2201 648 -1969 -288 -1683 2338 62 2145
10.3828 -785 330 787 95 -403 1650 552 94
10.3770 1210 -4029 -1535 711 -541 -407 -2182 -541
10.3711 2026 -739 -1482 -429 1555 -961 -2419 343
10.3652 -518 214 -2523 -1642 -460 495 2574 2015
10.3594 1677 1407 1535 941 932 -581 -728 1932
10.3535 -1724 -857 -337 273 -998 -681 -1172 -1106
10.3477 -579 4934 -1739 3600 -1837 260 -109 922
10.3418 -450 -1593 -820 -486 -2197 -137 137 -2221
10.3359 -1956 1178 -1403 -978 -877 -938 784 329
10.3301 3127 -541 542 -1029 1405 -2248 -1233 -326
10.3242 4113 3267 2930 -22 -2289 812 1588 -1000
10.3184 2903 2907 -2501 -604 -394 -382 -226 56
10.3125 -382 3815 -697 -1809 1741 1478 -1686 -1315
10.3066 -1301 -3188 -1951 671 -1967 -372 -416 -875
10.3008 702 256 1843 507 -893 2476 451 729
10.2949 433 -486 -1384 1835 -1092 -454 1307 1477
10.2891 35 2957 -325 3478 2045 282 -343 1669
10.2832 -2518 1062 1016 2357 2089 454 711 -1423
10.2773 820 -1142 -2023 2610 2646 -159 462 3558
10.2715 -2004 2259 -459 947 -111 2299 1807 -233
10.2656 1784 1424 2106 -1558 1300 16 388 -2302
10.2598 3210 -79 686 -2192 -293 274 190 -1648
10.2539 528 -598 1349 -1690 1763 -1531 -1665 707
10.2480 913 649 -837 -426 -1358 1675 -2633 -1783
10.2422 -1741 778 -2220 1188 -2549 -2571 494 609
10.2363 -548 2005 -649 -770 -271 2003 -254 2816
10.2305 2057 1629 1361 1950 722 -3526 274 -192
10.2246 -1749 -2796 211 -1639 3 -1227 503 -1449
10.2188 352 -64 -687 -393 404 -3966 -2877 146
10.2129 39 357 507 -1458 1939 1132 511 -365
10.2070 -1065 -890 565 155 1234 362 -663 1743
10.2012 -2124 -2013 570 -722 -2136 -2208 2 2042
10.1953 2125 -156 -388 -1236 2831 -133 -561 1143
10.1895 1720 52 1844 -1880 671 894 617 989
10.1836 265 863 -3144 -1091 1279 -1656 -1326 3004
10.1777 103 410 563 2594 -395 -1233 404 2101
10.1719 -2662 -192 -590 210 984 467 -2352 -351
10.1660 -197 -72 1591 -484 -949 -246 44 1042
10.1602 -2577 -2037 -123 1388 -85 355 2612 173
10.1543 438 -62 1459 766 -377 1066 673 -717
10.1484 1113 3071 -1634 -1597 -168 -299 360 -50
10.1426 242 1689 1920 -3127 819 46 812 82
10.1367 542 -325 -958 -240 1216 61 -105 1876
10.1309 1296 -1315 -1188 -252 732 1553 -2543 2000
10.1250 89 331 1244 419 294 1482 1770 -1656
10.1191 -2361 -1570 400 -378 -297 -738 -1263 794
10.1133 -61 449 807 2209 3175 -872 1930 280
10.1074 664 1697 -874 -187 1463 902 2725 936
10.1016 199 -167 902 -2723 1936 494 -920 147
10.0957 814 -1762 1342 -3246 2175 -416 380 -389
10.0898 -894 1452 -1433 -110 811 -1811 928 -1334
10.0840 1316 -503 1940 -82 -1498 1458 1798 1418
10.0781 -2199 -1594 1393 718 -455 -274 256 -3215
10.0723 -1797 -1812 1555 -565 -3134 -234 -536 -1082
10.0664 -2170 -1366 442 -657 1140 1987 -515 -2373
10.0605 -1474 100 1117 -283 -76 328 1815 1066
10.0547 -550 -900 -57 -916 -1482 1540 282 -1624
10.0488 609 -1584 -1464 -2437 -1783 -741 361 -161
10.0430 407 49 -696 1731 -1676 -1532 3039 327
10.0371 308 3919 -1641 2390 -75 -314 -1497 -113
10.0312 1091 -45 -734 570 1867 56 -651 -612
10.0254 557 -907 2075 -861 1586 -289 1080 -1739
10.0195 -336 -1506 -1193 -85 -1779 2925 2501 1341
10.0137 0 -892 -2584 1206 -1785 -98 -922 -21
10.0078 2491 -145 -307 1353 -798 -2927 -1169 -392
10.0020 -1190 1461 1771 -1534 47 299 -644 -980
9.9961 635 -621 2697 -62 -3 268 313 -656
9.9902 855 1209 314 593 -2086 -666 115 -505
9.9844 1611 539 -53 -1023 -599 -410 2456 -1815
9.9785 1374 -580 2406 1375 -1299 502 -2118 1041
9.9727 -220 -1591 -88 855 3635 1254 549 -114
9.9668 -3368 -2228 -3544 -1831 1464 1895 403 -622
9.9609 1030 3488 220 2068 2013 -1246 183 -1252
9.9551 480 -664 -1407 1024 -112 -378 1282 656
9.9492 1841 2732 -1878 695 -2659 1332 2880 -1453
9.9434 1802 1008 566 -3306 -1587 -584 87 173
9.9375 1200 184 -282 -1496 -1153 -310 3331 -563
9.9316 -129 1474 1189 927 131 2416 -877 2111
9.9258 2320 391 -808 -944 396 -2974 1920 -1290
9.9199 -1847 744 100 -1304 1963 -1765 -867 -2379
9.9141 2610 870 -2159 753 -920 -1279 -264 -2953
9.9082 283 -9 2233 -1321 -2099 -1439 -884 1248
9.9023 3338 871 639 -1693 -2126 -1818 982 1688
9.8965 -334 -1957 1144 -168 -1120 -2356 -2758 2259
9.8906 -719 444 721 1318 3323 -272 1790 -1306
9.8848 -2152 -44 -2949 -2293 -1171 934 -352 -2687
9.8789 -59 -883 -793 -884 -174 1141 758 43
9.8730 -1262 -2360 2848 2263 -2562 560 593 159
9.8672 268 -621 2139 513 1497 423 295 -677
9.8613 1813 -2753 2048 -323 384 -796 -2738 -1376
9.8555 612 -688 719 -1331 -2674 -209 -655 -1161
9.8496 2144 -2729 173 -447 1958 188 521 376
9.8438 324 -339 -249 1257 3316 -1495 359 -1624
9.8379 2867 2600 357 2121 320 -1764 2672 -2339
9.8320 -1572 1762 1323 892 -565 -1062 -1772 1813
9.8262 824 3294 676 826 -817 -714 759 -1195
9.8203 1557 1602 -1885 925 379 321 -507 1735
9.8145 324 975 577 -957 -1740 2494 2584 -33
9.8086 1623 1975 2270 1450 -171 1043 -743 373
9.8027 -1394 -2422 -1346 -2321 635 1017 698 -1138
9.7969 -37 -1942 629 858 2868 -1500 -221 -152
9.7910 3520 373 700 -2215 -197 3281 2056 1016
9.7852 -546 -1336 375 -898 3394 -820 -712 1139
9.7793 384 -1321 -1954 -1215 2368 -848 -226 1384
9.7734 2417 1233 599 -883 -1362 243 -74 359
9.7676 -3048 -2063 1198 2213 269 -1839 911 -1285
9.7617 -407 -388 1147 1636 933 -1424 1603 -709
9.7559 -2219 1407 2837 -1544 -562 -880 -692 1789
9.7500 1234 286 271 -1109 -762 -1025 906 1006
9.7441 -523 1093 -1249 3124 -1570 -796 -110 1238
9.7383 414 -1289 882 1198 -1653 -3163 875 -1521
9.7324 1535 2729 1926 489 1291 -233 -1268 -183
9.7266 -621 366 -1725 -1572 150 158 76 1403
9.7207 -2172 948 -383 -48 1615 195 1339 2380
9.7148 -68 -2710 -764 -689 325 -1197 216 365
9.7090 -2886 2378 -886 -2019 -1171 1101 4683 -2986
9.7031 -1002 1731 -1008 84 -646 -45 438 -1465
9.6973 -1478 -2155 334 3634 1726 -141 1929 941
9.6914 -457 -948 214 -1203 -39 634 -1849 -1714
9.6855 -439 -1204 -146 479 520 1028 114 427
9.6797 -170 126 -110 -1 -498 460 1220 1975
9.6738 2348 1153 -909 -1946 -2358 -461 285 1507
9.6680 138 16 -1794 1052 2803 -617 3168 1105
9.6621 -1232 947 356 555 -1797 561 1330 -1777
9.6562 724 1889 488 -1021 -305 1119 835 -147
9.6504 -957 -1051 -278 -1746 578 2921 -307 -72
9.6445 180 896 -391 806 -1257 -1626 -882 751
9.6387 -961 -1094 339 -2980 -674 -3488 -929 2781
9.6328 -2460 1658 -912 -829 -559 2909 -859 91
9.6270 -726 -399 1082 438 162 -1013 282 -325
9.6211 -71 120 -788 -1919 593 -2696 1320 -862
9.6152 -1375 1530 -980 88 -1364 616 473 -396
9.6094 -340 -2324 1670 -1001 -212 -739 345 -349
9.6035 -571 -460 300 2272 -1701 1527 127 663
9.5977 -1018 1464 1106 -2802 -2592 2485 -883 -370
9.5918 -2265 -51 63 -754 1889 -328 1232 39
9.5859 249 -436 -856 2095 1664 1716 -1004 -632
9.5801 217 -542 891 2394 -840 -627 -2276 1823
9.5742 256 486 -1013 10 -462 -1024 772 1924
9.5684 1834 -474 4539 -977 20 -1961 -422 439
9.5625 -928 -166 -1461 -653 -1842 -686 -3198 -1266
9.5566 -707 -249 1848 -1640 -1095 1202 -1384 -570
9.5508 -2571 -4654 3176 1084 2989 -186 -2156 506
9.5449 -1419 303 560 837 -1209 175 537 1988
9.5391 -578 2779 918 567 -926 478 910 -1493
9.5332 940 384 -409 -1224 -315 985 2524 199
9.5273 -513 1000 1407 1095 -256 -3631 256 -114
9.5215 -1729 45 -1508 -481 1812 -885 -3544 1510
9.5156 -190 -21 -2714 -2785 -572 -822 214 -344
9.5098 464 -662 511 -790 694 910 -2304 -57
9.5039 -573 -44 2712 -935 -277 310 -3248 2081
9.4980 876 -260 1346 3896 -1223 1969 2533 -1211
9.4922 693 -1948 391 -1027 858 -588 1840 1801
9.4863 2531 -136 -463 -452 -926 -166 -1491 -390
9.4805 1198 1453 614 -2298 2244 2719 1289 -586
9.4746 968 -135 -2332 1690 1291 774 1035 65
9.4688 -1758 2238 -472 -474 731 -2425 -322 869
9.4629 -335 -3520 259 1320 -1940 3409 277 93
9.4570 695 1524 403 -86 542 -1751 2987 -2462
9.4512 -227 -1115 197 -123 1547 -116 -388 3088
9.4453 -1482 15 -532 1473 22 1815 -1081 461
9.4395 861 33 459 -2312 758 -393 2810 -1397
9.4336 -2195 3020 2889 -294 -2846 -1063 454 662
9.4277 1489 1773 957 -244 2041 2370 566 -542
9.4219 1187 254 -25 182 1744 2258 1527 648
9.4160 -495 -2323 -292 750 -1267 637 -1182 403
9.4102 -4015 632 1085 55 1031 -1434 130 -595
9.4043 107 -6 255 -1097 -646 -2635 -362 -3719
9.3984 506 2894 -705 -643 131 643 1102 -772
9.3926 -437 629 628 -1808 752 2568 -2594 -603
9.3867 -436 -1534 -1966 2492 293 632 1447 -1775
9.3809 1844 -926 1597 -6 2051 864 -15 1499
9.3750 -903 984 -2017 -210 2869 1366 -1412 2009
9.3691 -431 623 -512 944 -743 2104 -424 -881
9.3633 -575 -1995 1037 1687 2069 774 -197 1995
9.3574 2174 -895 -1821 -696 24 1690 1649 590
9.3516 1742 -351 -118 -3239 -724 -318 1789 -110
9.3457 -485 237 -486 -2867 -940 -191 -263 -936
9.3398 -634 911 -2143 -365 -841 -322 103 1054
9.3340 -3858 -252 -1661 -2466 285 182 -1041 -299
9.3281 -1206 2114 2564 1714 -1718 1053 520 143
9.3223 -192 -368 -846 -981 -1162 3563 840 -973
9.3164 -940 831 2714 2545 -1386 -1930 -911 473
9.3105 -767 -825 3096 -1870 1025 -208 -853 2868
9.3047 -1873 419 -231 -1005 -609 146 3874 761
9.2988 -364 -2061 353 1207 4198 -2319 -2127 -2656
9.2930 -2282 1779 -145 -1051 224 -118 -200 1741
9.2871 1296 -529 1859 1528 -364 -664 -554 -1380
9.2812 -3138 1699 2044 -3589 -439 -1417 -580 594
9.2754 1638 746 1067 1675 420 1726 1349 -1003
9.2695 1132 -579 1561 1765 -2040 904 -1413 -761
9.2637 -686 798 1012 -54 -3076 768 1732 -3910
9.2578 -876 -859 376 -407 1532 -579 -1318 -2895
9.2520 -2762 -328 948 -1519 964 -599 1301 1967
9.2461 697 -1381 1563 301 91 575 1037 1758
9.2402 -1947 1843 386 2008 -140 1220 1457 2000
9.2344 -441 2195 -718 -1767 -1191 -1934 2117 1486
9.2285 -2737 -316 398 333 -777 -1023 1280 -120
9.2227 -1314 418 -967 -374 1166 -295 3804 -2105
9.2168 -1455 2354 323 -244 1454 -268 -1435 2298
9.2109 177 308 279 -55 -1260 -1483 -2463 1349
9.2051 136 -303 -2188 -2006 -593 498 -243 -122
9.1992 -1314 1180 439 1946 797 -1498 -937 -254
9.1934 1696 91 -6 2123 1331 975 -2613 -268
9.1875 2985 1013 1910 2768 1197 -2921 559 -280
9.1816 -1298 1538 -1076 1927 696 -736 -1253 2771
9.1758 -298 544 -23 -1249 -478 -276 -2526 -1093
9.1699 -1342 489 227 -1817 -917 147 -1219 -2544
9.1641 1291 4 -495 -696 510 -625 65 1661
9.1582 2112 2489 -1489 -59 -1911 -1595 -2081 -593
9.1523 -669 -1459 -145 765 -762 -1247 1153 -346
9.1465 331 -1582 840 1238 -1560 -1613 -617 881
9.1406 1121 1674 -1377 -2920 -1342 88 644 -2032
9.1348 -84 -540 669 -1343 -278 -513 372 2
9.1289 573 293 1220 -1448 5108 2079 -2060 960
9.1230 -735 -1198 1797 -3485 -1183 756 -2506 1324
9.1172 -693 -8 2206 144 1531 2057 -836 -605
9.1113 2035 930 2259 3570 -1330 -114 697 -1962
9.1055 -1437 -2223 -428 134 2494 3896 -233 -230
9.0996 428 573 -88 2188 1757 -861 -3391 22
9.0938 2188 2357 -686 -860 105 -924 -1395 -909
9.0879 2760 2209 482 1351 -776 -901 1053 713
9.0820 -1946 1906 -3258 -946 1804 2162 4277 -381
9.0762 -209 660 144 -1609 -433 -523 1470 -336
9.0703 184 -38 -458 1628 -698 756 1880 -232
9.0645 1677 -701 487 -2095 1508 1772 -34 -2384
9.0586 -472 27 1908 -3459 406 182 -2232 1020
9.0527 -2633 869 1476 -1380 -1606 -1439 -697 736
9.0469 986 -620 841 -1607 -174 -2635 2130 -1919
9.0410 -1332 2518 1467 -1575 1387 4131 449 -1408
9.0352 -900 2607 -780 -1225 3800 -2515 -1228 -2552
9.0293 -1050 -729 702 -2222 1020 -943 2146 -868
9.0234 10 -2886 -2756 800 3095 -2525 -433 -312
9.0176 56 996 932 1134 -3868 -2375 3280 1866
9.0117 -2580 -783 662 -1236 -723 -2369 -1625 3004
9.0059 166 -149 909 -1174 505 -136 992 -1499
9.0000 -287 1725 804 -1369 -2995 858 573 -890
8.9941 -1514 -108 362 943 695 589 -1009 544
8.9883 -101 -653 249 3830 -863 -409 122 -248
8.9824 -277 773 -1429 891 1521 -882 3050 -2236
8.9766 685 199 467 -1162 -2131 502 -2704 1333
8.9707 1157 197 1079 443 363 -30 -1012 -285
8.9648 -47 -895 -69 -1815 596 -139 -3261 -484
8.9590 -1566 -206 2504 -1302 305 -1501 -572 1081
8.9531 598 -97 1406 1597 3105 -2789 -2308 -1880
8.9473 -1183 1367 112 -922 -464 -1507 1354 399
8.9414 -151 -2686 -958 -2206 -884 945 -1294 962
8.9355 -1438 2777 -261 -818 1152 1270 -1504 -1750
8.9297 -1767 873 -987 -768 473 -1296 572 620
8.9238 -1014 -1365 1729 -2541 286 2600 -791 -1759
8.9180 918 -23 -1350 745 -256 2066 1060 -1350
8.9121 1026 573 -316 -1633 1103 327 -1298 -248
8.9062 404 1418 2407 2014 -730 1525 -1624 -213
8.9004 769 -409 -872 35 2178 877 -1245 2129
8.8945 -409 33 308 171 -1358 -697 -326 1228
8.8887 -2732 1250 2177 -1760 -18 -758 -1929 2014
8.8828 701 2313 2142 1743 -58 1161 711 -158
8.8770 1017 -737 -153 827 1373 521 -1221 448
8.8711 3162 140 1163 -1766 563 649 -916 88
8.8652 -205 1038 274 -2212 967 3525 -2116 -1617
8.8594 -794 -1472 -1554 302 3264 1494 -282 423
8.8535 1175 900 -385 -1723 -1587 2856 1081 497
8.8477 1261 -1123 -597 134 -1986 -1385 391 -624
8.8418 -2488 -1195 520 -414 2011 2576 -1162 1065
8.8359 -109 -1046 1166 1534 -2596 -2361 1740 1289
8.8301 1413 1401 -965 -1221 -1221 957 1290 -2622
8.8242 -2361 752 -1487 637 -1473 -1429 -1649 457
8.8184 874 -1028 -576 -590 446 -60 175 -887
8.8125 -75 -118 -200 388 -1838 986 1888 208
8.8066 -2483 1767 -278 220 192 3059 -1486 133
8.8008 -482 1143 1247 1492 531 641 675 879
8.7949 788 -614 3608 706 -3966 260 399 -1642
8.7891 -40 23 -969 537 -2149 2048 -2628 -2436
8.7832 347 -2919 1400 1140 1148 -2333 671 -1438
8.7773 1257 1325 -2316 -1048 -2153 2375 1786 -1742
8.7715 -150 -4538 1174 758 -1466 564 -719 -1442
8.7656 -254 254 1662 518 -477 980 600 76
8.7598 733 1544 200 1657 -30 -592 -1744 -1820
8.7539 3974 -2710 176 416 -1116 -1510 1679 -1125
8.7480 101 -198 -979 189 245 531 1414 -498
8.7422 757 -2475 457 -1188 187 -1640 2083 -904
8.7363 2981 -2224 -878 1105 2842 54 -663 -603
8.7305 -2579 -2496 4118 -2072 -589 978 838 20
8.7246 -93 2109 3457 139 -1767 -2376 -391 1789
8.7188 624 -370 757 405 277 903 863 174
8.7129 -1225 489 -1672 586 -520 -1901 3557 -655
8.7070 1471 -1081 73 1649 -1798 98 2082 -825
8.7012 794 -333 -749 -905 141 19 -656 698
8.6953 -203 394 1117 212 -264 -1699 -582 -3286
8.6895 -1995 12 439 1331 -22 -2634 610 780
8.6836 -1587 394 -2265 -1979 17 674 1108 687
8.6777 -521 563 701 -1233 8 1230 1577 -1410
8.6719 286 -718 764 1335 -790 186 203 580
8.6660 783 386 52 1275 -4426 -3291 -1532 -760
8.6602 -541 475 -883 -1392 -809 -1263 321 1318
8.6543 700 965 951 -289 -2793 -1974 -1079 765
8.6484 629 504 1527 -735 -198 401 -200 -776
8.6426 -2514 20 966 -2807 -37 877 967 896
8.6367 -537 837 1128 1080 -701 388 281 -582
8.6309 -1131 959 -1635 1293 -2025 -204 -71 -657
8.6250 1789 -390 31 -998 -2540 440 -787 1751
8.6191 1285 -1319 -2297 -346 1032 -548 2439 -392
8.6133 -715 575 -89 1536 -410 -1467 589 209
8.6074 571 -224 2728 -1903 -1687 -1410 1734 -2268
8.6016 -576 -2443 991 -519 -2114 1350 -613 -1386
8.5957 467 -4 326 789 -1878 3010 2579 -135
8.5898 -3032 1657 -919 1623 -280 -1359 -881 -3221
8.5840 -1525 2096 2957 1424 -1379 286 643 -167
8.5781 -3714 -358 -838 821 -2139 586 -305 3595
8.5723 2273 -1327 -1549 -268 123 1396 -1312 292
8.5664 -223 -24 885 -2372 161 -663 -147 1063
8.5605 -3530 -1523 -1782 2225 2177 547 -1069 907
8.5547 -1522 -2459 1412 -620 -1656 -91 1814 634
8.5488 -153 -3364 452 1868 288 -958 -278 1539
8.5430 -1232 -2634 -534 1979 3593 -878 712 -1375
8.5371 -525 -1634 -1406 -126 2503 -114 -360 -98
8.5312 -1318 2674 2631 1689 -588 234 -2619 489
8.5254 1672 546 -592 -1488 -561 1979 -722 -203
8.5195 2305 -1836 -3292 -710 -285 -259 2083 -792
8.5137 188 262 22 -1466 1510 1659 -2635 -947
8.5078 -1311 -979 -2182 4112 526 -159 2540 -132
8.5020 -31 2631 -1240 -1702 886 -915 796 -1770
8.4961 -2890 2794 1783 920 302 -446 1174 -1412
8.4902 -1219 -420 99 -826 -1426 139 -970 -296
8.4844 -239 -61 -1408 -1415 814 1035 -2654 1029
8.4785 2013 -100 316 -1405 2997 -2063 2087 -84
8.4727 910 532 355 2035 -915 1315 70 -667
8.4668 1082 206 -670 -879 1663 -800 -1704 -538
8.4609 1986 812 -2016 -1215 -1576 2726 -2277 1191
8.4551 1987 24 858 -396 282 9 -1855 2093
8.4492 441 2165 358 -1059 1559 -1249 -1259 750
8.4434 1361 2511 426 -929 799 305 -1105 890
8.4375 2360 -981 1558 2773 3693 -919 -2156 9
8.4316 802 -520 1244 -13 -650 912 -679 -2331
8.4258 146 1049 2726 -84 -318 2735 -455 -1519
8.4199 2293 -885 -612 3255 -1663 2032 -1536 102
8.4141 543 1728 -1279 -236 211 1866 -1662 878
8.4082 256 -3450 -2023 -154 844 573 -1451 1202
8.4023 451 1786 -60 -2375 1241 -1620 39 -2140
8.3965 1692 1317 -541 -1120 413 -1372 1901 -2418
8.3906 -2351 1271 29 983 396 -494 -1012 -2240
8.3848 -1146 62 1477 322 -1360 980 356 1188
8.3789 100 836 -1578 2622 1314 -1334 -907 -1842
8.3730 -1425 -804 -662 -1283 -410 1002 -1947 1536
8.3672 2539 626 699 -2156 -430 -678 -491 680
8.3613 -1627 1 -3465 2561 -2600 1513 -419 937
8.3555 -1139 1002 -644 -34 -2540 -2975 2096 1793
8.3496 -525 508 535 -3908 -402 -2658 1563 -2298
8.3438 -1679 365 2199 1246 3108 -2062 1586 -528
8.3379 57 -1468 578 -779 929 382 -170 934
8.3320 -2467 49 -3276 -568 129 186 -810 2170
8.3262 141 312 -776 3115 -193 905 -527 1717
8.3203 627 -2132 1099 -1215 246 968 1950 668
8.3145 -652 1254 -326 312 -686 546 1820 2639
8.3086 982 2103 -1331 344 1787 -322 937 -488
8.3027 -1065 -293 179 -506 240 3634 -1626 -356
8.2969 -2076 3565 1732 -286 -789 71 -851 448
8.2910 -1348 -534 1584 -1589 772 -2185 82 1737
8.2852 -864 1386 2630 1424 3519 -751 283 424
8.2793 -2892 517 -1654 -1361 396 116 1581 -669
8.2734 -1617 444 -1373 669 989 757 99 715
8.2676 -1994 962 2102 -1389 381 -1219 -547 -591
8.2617 -488 1209 -3733 -2267 981 232 -2337 544
8.2559 586 -887 3517 86 1226 1028 0 837
8.2500 -538 -1681 -960 988 2514 -1655 2735 943
8.2441 573 940 -2066 272 -681 -193 2533 -304
8.2383 -3052 -2616 2016 -16 -1957 862 -8 -363
8.2324 -525 -1616 -635 -456 1807 529 -854 2596
8.2266 1934 -360 1034 -534 -772 1114 -248 309
8.2207 -1565 791 1441 -229 -60 3866 35 -541
8.2148 -61 1262 198 -1224 2098 -1076 1963 -2147
8.2090 -843 -1620 858 -523 -1630 -781 -413 1878
8.2031 347 2184 1478 1909 -2577 -2785 -1565 -1738
8.1973 -2035 -1591 -1922 -3354 1929 -1676 585 204
8.1914 704 -3134 1112 2669 1598 65 101 3274
8.1855 1122 962 1146 -1676 1134 -1430 1109 749
8.1797 -1121 -1227 1946 -36 -1841 850 -964 987
8.1738 -388 1477 1415 -340 860 -1268 -3039 1496
8.1680 -470 -1235 2121 2594 -985 2398 1107 -939
8.1621 -379 486 29 -779 -230 -303 1557 1915
8.1562 -19 450 794 820 1048 -86 570 857
8.1504 -881 952 -1366 -904 -2161 -1076 -245 -251
8.1445 1418 1729 -1013 -63 1660 -1195 -1760 -253
8.1387 2053 -1183 -232 -2269 -1544 -586 -2833 -1538
8.1328 -630 -259 -784 2509 103 1040 1105 2289
8.1270 90 -3129 -1861 -2061 280 2163 -2267 201
8.1211 745 -457 2091 -422 1237 1116 -1758 -3288
8.1152 758 -1984 176 -1100 770 -527 -410 -329
8.1094 430 -468 1167 -1993 -1235 -132 -838 -1644
8.1035 -815 -969 1092 1442 -256 -850 357 -2022
8.0977 599 33 -3252 -807 2906 926 -1079 -1455
8.0918 -1849 520 313 -8 -347 516 895 402
8.0859 -1730 -845 809 2131 1662 -563 -1677 2457
8.0801 1512 -893 2428 1844 -871 -199 619 -314
8.0742 -960 3108 -1381 -1308 -1875 -420 -1373 -749
8.0684 109 -1574 449 -1767 -1042 -641 -311 2884
8.0625 2138 -3907 3002 682 -320 -1661 2652 -923
8.0566 -252 -2325 -1833 -3196 -1373 -710 116 1917
8.0508 2063 1041 -7 2320 201 -1310 1325 -683
8.0449 2764 2994 -639 1422 1782 1021 1635 -198
8.0391 -1484 1259 326 -2008 89 -748 2943 -4052
8.0332 2197 298 1585 592 -1517 2345 -1194 2458
8.0273 -1156 -3565 -258 -2011 285 1040 -1924 1723
8.0215 -249 -1109 1244 1965 280 -1977 1951 959
8.0156 -1631 -741 140 1836 -1721 655 3101 2670
8.0098 -1002 2196 -692 821 1432 1009 2027 1732
8.0039 1222 22 -1188 -32 2113 339 -534 -1258
7.9980 -1523 829 -1530 630 -10 2549 543 -1824
7.9922 793 413 -467 599 -222 3019 1256 856
7.9863 -1649 1517 2401 -852 -1215 -1586 -836 799
7.9805 -556 -1207 2362 338 -450 -16 -467 529
7.9746 574 -3148 1735 -332 -1132 1002 1339 334
7.9688 424 -1569 -2124 1421 583 1019 -723 1015
7.9629 3528 -1406 -1321 -296 2768 3574 -464 2255
7.9570 -150 -15 -1058 0 -3335 465 34 -2406
7.9512 221 -1274 -308 -1464 1247 -2191 -880 830
7.9453 1246 -709 -380 1183 2926 -742 977 746
7.9395 -546 2112 1977 276 -1126 1536 476 2129
7.9336 -2875 -720 -963 1068 527 296 1551 -1184
7.9277 -841 -122 1232 -2598 1872 -1109 743 2016
7.9219 1313 2202 248 -759 1843 -526 745 -1284
7.9160 2770 -1430 -121 -250 3299 1914 -335 2637
7.9102 -105 59 892 -97 1037 380 -997 3266
7.9043 -3 112 2595 1479 3577 889 2090 2963
7.8984 2135 -739 -963 1541 1287 2507 861 270
7.8926 1617 -655 2317 797 2751 6872 626 5828
7.8867 1988 5599 2521 6084 3649 3399 7827 7177
7.8809 9108 7684 9305 11850 13537 16083 19929 25139
7.8750 30179 43072 56688 85816 130345 211665 318198 343178
7.8691 247032 155410 99859 66063 50746 37804 29276 24635
7.8633 19643 20855 16842 15231 14916 14958 15446 16271
7.8574 19455 19586 24414 30315 37325 49310 66592 98873
7.8516 157140 248576 342690 316107 208624 128437 81809 57176
7.8457 41739 30683 24703 21441 16684 14220 11529 12721
7.8398 7322 8868 5729 5488 6000 4962 1864 5596
7.8340 4366 1753 3213 3430 4021 4869 1567 862
7.8281 949 1694 1888 -1440 2114 -220 1206 2502
7.8223 86 934 -1058 347 -462 2079 -1618 -898
7.8164 1297 -887 2588 1179 1034 1470 -1189 1540
7.8105 2327 -20 -1703 -138 -1497 1359 1498 2947
7.8047 -663 -1182 -1888 -1352 3256 628 -248 -817
7.7988 1063 -1227 148 2346 632 -1502 -1006 823
7.7930 -20 682 1666 875 109 -1309 -77 403
7.7871 1284 154 -1134 3292 -788 3653 157 -852
7.7812 10 -571 1801 -1022 -974 -2546 -261 746
7.7754 -348 -1237 -2229 1494 375 1139 -1514 -973
7.7695 -478 346 -2252 1950 215 -789 -648 -1590
7.7637 1499 -331 -1370 -880 932 -1687 283 1640
7.7578 -734 -615 2159 3404 373 -863 -383 930
7.7520 1389 116 2279 2032 -19 -72 -66 951
7.7461 -1673 -857 -607 -103 -434 -718 -1780 -1762
7.7402 -300 -1884 1099 2083 1482 3601 675 -350
7.7344 -2773 -1533 93 213 -1442 -1711 1016 -790
7.7285 -1383 -274 -233 834 1601 -1300 991 1501
7.7227 -404 535 -626 361 1473 3401 1847 -2026
7.7168 28 -1179 -1369 1905 -1301 -2450 118 -1790
7.7109 -1655 -2113 -985 568 -3132 -625 -679 -731
7.7051 -1304 -2246 -1315 -2179 2468 885 2866 -967
7.6992 -79 -431 -198 -375 477 45 -1723 2396
7.6934 527 893 1115 2601 -211 -290 -1514 -1280
7.6875 -2073 -2141 -692 -1523 -1246 -1285 316 4061
7.6816 102 774 -368 891 1552 -959 -1005 975
7.6758 1242 -635 -1518 703 -93 -832 2223 928
7.6699 -872 1767 904 221 980 2708 -1249 -1022
7.6641 129 571 -626 -545 -1849 623 102 6
7.6582 2050 649 2148 1096 -2539 1871 655 -2165
7.6523 634 -1188 1239 940 -780 1899 1272 3988
7.6465 2366 -55 -1179 -1551 -385 1219 -845 16
7.6406 1659 2928 -1967 -850 -672 -1774 -2409 1089
7.6348 696 -123 -1704 780 -1622 -131 -110 -2179
7.6289 721 -1796 1558 4026 -736 -2844 -1448 3373
7.6230 595 550 1853 646 -1924 2554 2549 2003
7.6172 1289 517 -2538 1104 -717 241 -684 -107
7.6113 -2859 -1891 1423 814 -598 4 -2207 2895
7.6055 1002 1751 -2136 47 922 -1517 347 -3388
7.5996 52 -1649 707 2577 226 539 -6 282
7.5938 -1494 622 -475 -855 981 -821 2438 1455
7.5879 -2128 -387 472 835 395 1565 -11 2624
7.5820 1129 1609 1272 -480 314 -3416 416 -2436
7.5762 289 2143 1041 410 -666 -1386 428 45
7.5703 -766 -1839 555 -1496 -303 -3426 899 1172
7.5645 1578 -1968 -2595 -1068 1935 -235 -291 1778
7.5586 -264 1250 -496 -53 1393 523 1371 1207
7.5527 -330 2369 4036 1493 -701 1214 494 -4037
7.5469 -2500 191 1436 668 -2732 563 -1335 868
7.5410 -1701 520 1591 914 -698 723 -268 -250
7.5352 2754 3452 -1585 2192 2947 -492 222 -605
7.5293 712 -851 319 24 -707 -1387 -98 1400
7.5234 -89 -578 -1 -1152 -3240 1688 2853 7
7.5176 754 -1220 -1842 -1693 239 2391 1047 2025
7.5117 3663 -926 615 -759 -712 -754 -2053 1290
7.5059 1425 1807 -2732 633 -2383 -1652 2581 -866
7.5000 -127 -632 245 538 -908 -418 -585 1398
7.4941 629 1138 -528 3090 142 789 828 -226
7.4883 1304 -557 -1609 -1111 1532 -1019 1391 902
7.4824 -931 1596 -3932 -989 -1181 -109 -1277 -97
7.4766 452 597 -417 -687 262 1298 -2838 1582
7.4707 -137 2148 -2100 -2084 -2144 -2633 -435 225
7.4648 13 32 1226 -403 -2110 31 1129 974
7.4590 -2442 2816 1669 2288 -1117 -2079 666 -1579
7.4531 1879 -425 -256 456 1351 1235 -209 -563
7.4473 2309 963 253 150 -3404 -2288 -2838 -2464
7.4414 338 2424 -1391 -459 -1961 -1085 1299 1924
7.4355 338 -369 3403 680 -784 -1360 2347 569
7.4297 480 -1355 -1488 -1983 1839 493 891 1957
7.4238 -90 801 -790 -380 -1366 -883 143 -1083
7.4180 1414 -1288 952 -2012 797 872 -767 1454
7.4121 -1416 2155 19 -151 2217 -1085 -2528 -1171
7.4062 1954 245 123 -3115 -939 3622 -3033 -3035
7.4004 -3000 -949 -1495 -748 1558 -1684 -1590 -489
7.3945 -1276 325 -1813 1320 2356 1709 448 -866
7.3887 -514 -1859 -357 -182 1156 53 3262 -3084
7.3828 463 -1315 561 256 333 -2953 1951 -1583
7.3770 -425 3129 -1931 -1005 2446 1886 -859 1490
7.3711 -85 -1435 -764 -2947 441 -13 103 -4108
7.3652 1604 -1537 381 696 -1900 -1296 -127 -85
7.3594 1212 2886 1550 712 -44 1711 2920 -1356
7.3535 -387 329 260 526 -2276 1679 -702 522
7.3477 414 798 -303 -1154 2192 -871 -1692 -159
7.3418 1413 260 -21 486 1791 128 -1307 1868
7.3359 942 -1282 -335 -2172 2123 1810 494 -2812
7.3301 610 1598 -1857 1260 368 -223 1372 1024
7.3242 2890 -549 -83 806 -229 1864 1356 2035
7.3184 -613 165 1691 112 -1226 -731 -3758 3071
7.3125 -375 -764 -863 -147 209 1883 934 -182
7.3066 -683 257 1008 81 -779 740 -1563 2353
7.3008 353 179 4077 155 1600 1138 -2516 -973
7.2949 1142 1465 212 1634 -30 1992 367 724
7.2891 -1644 3251 1643 3910 70 3070 4382 1926
7.2832 1479 837 2234 1081 3305 2087 2793 2541
7.2773 3290 2717 3522 3648 3431 3487 3362 6217
7.2715 7112 9890 8284 10274 15220 13309 18243 20730
7.2656 24793 31899 43096 60470 90262 141463 224962 327491
7.2598 330939 231141 142695 92637 61808 47658 33952 26877
7.2539 20260 20795 19484 19136 15129 13310 17774 14342
7.2480 17477 20304 18455 26011 31275 39072 52837 71495
7.2422 106211 169586 265823 346346 299165 195254 123662 76915
7.2363 51764 41346 30948 22831 19022 15337 12547 11242
7.2305 7114 7242 6686 4728 6722 5436 6869 3683
7.2246 3742 3699 608 2244 3171 4523 364 2219
7.2188 -147 541 4263 1405 1335 -19 373 3579
7.2129 1692 2458 -478 -1386 1837 2236 1998 1538
7.2070 1554 734 981 -1696 795 2256 2067 2321
7.2012 794 1319 -208 517 2402 1333 5553 1981
7.1953 -1283 -126 -990 759 -91 107 -228 -2399
7.1895 -2016 397 497 -1777 293 2877 -178 3040
7.1836 -135 2092 -1700 306 774 698 1402 -413
7.1777 2463 94 -1058 1718 -1279 -5135 2444 -2056
7.1719 2756 260 -808 232 1048 -579 -1639 1362
7.1660 578 882 -80 -1358 -173 -2286 1595 54
7.1602 1159 1093 1079 6 66 -1444 1058 -2664
7.1543 -1753 199 -122 786 1083 820 339 3862
7.1484 2917 947 4212 1811 -359 -1025 -1612 -1560
7.1426 550 -598 2348 -1032 641 -142 2536 -889
7.1367 1274 2418 -287 -1429 -380 -941 931 1416
7.1309 695 -653 229 1787 -2448 -2144 -831 -675
7.1250 -909 2121 3214 -1479 -992 -447 663 -716
7.1191 1071 -642 309 360 -1192 634 -507 -2837
7.1133 -3079 1628 1501 43 344 587 -20 1437
7.1074 1361 12 2125 3112 -1665 -1204 696 -1487
7.1016 428 -1965 238 174 103 -197 283 -1356
7.0957 457 -162 3197 1076 850 2509 753 1900
7.0898 653 1818 -203 -1863 903 -935 -1963 -529
7.0840 2013 -974 1755 307 1372 166 1219 -754
7.0781 -2833 1853 -150 -636 2246 -126 2070 -1899
7.0723 958 16 331 184 18 50 78 -757
7.0664 376 -1187 -480 129 86 99 -292 -187
7.0605 1155 1042 1834 -344 -1073 -593 365 58
7.0547 -4150 -778 -750 -874 -2445 2905 783 3187
7.0488 -2126 1080 -436 34 1918 2024 -1490 -1481
7.0430 2748 -1094 -2840 2235 -1990 104 1413 1920
7.0371 36 566 -530 -81 3827 -1555 44 -842
7.0312 -1415 148 1978 -1617 -838 2869 632 1158
7.0254 1136 237 -2 -568 -738 2667 2907 2088
7.0195 498 2536 -1026 1287 -803 1724 -1483 559
7.0137 -692 -87 -910 -643 -1401 348 1137 807
7.0078 -124 -125 1576 3005 -306 185 -234 -2241
7.0020 -321 -219 378 26 -915 -1321 1034 -1519
6.9961 -2244 726 2163 1156 1372 -811 -1563 104
6.9902 -1612 1354 -2150 -1000 -416 -515 212 -1853
6.9844 2000 2928 563 2441 -1318 2039 -427 -512
6.9785 -1762 -1202 -3495 182 2169 542 1454 1030
6.9727 1667 2513 -771 1088 812 1867 494 2068
6.9668 -676 -156 445 656 2223 650 -2079 -255
6.9609 -2418 -1376 -1469 -3231 -1056 -2184 -676 -238
6.9551 -1035 -387 -1747 1026 696 1176 896 -2831
6.9492 49 -898 -1987 2198 1371 -1728 2653 -1837
6.9434 896 -3301 -2677 1528 1126 1678 -1194 -1203
6.9375 -249 2155 -1926 -47 67 -1753 -2478 297
6.9316 1760 -1805 1321 -1951 1148 -110 603 715
6.9258 -200 -614 3085 1165 -452 -173 -1661 37
6.9199 1745 281 -490 2395 -2843 400 -773 1984
6.9141 2192 -2863 458 4753 3582 1667 -230 -1201
6.9082 209 -651 89 -796 -540 704 -181 -4076
6.9023 4105 3178 376 1054 -276 -310 -1504 2682
6.8965 -1013 1011 -1790 -1494 85 -1671 -540 -1217
6.8906 68 -276 -773 -37 2823 372 48 2519
6.8848 2278 -230 -697 -5107 -2502 -3009 -2266 2274
6.8789 -4306 -660 357 1010 -989 2406 -416 -2662
6.8730 -102 1507 -1148 2579 715 2174 -834 223
6.8672 -921 922 139 1692 -531 -4002 1368 -331
6.8613 1557 -2795 -834 1398 -1024 -2064 -799 -1525
6.8555 -191 -476 -635 167 3329 -1656 549 895
6.8496 676 1100 -2778 2254 779 1889 2135 194
6.8438 -50 -1167 -556 -190 1243 -834 -3716 -1736
6.8379 975 248 -4044 703 290 1309 -1782 158
6.8320 -281 -1127 823 1305 2077 -2177 420 -982
6.8262 -1350 916 -310 -1441 985 19 -414 579
6.8203 1660 408 819 2092 -887 2057 -1010 -25
6.8145 1059 -3034 -1924 -317 -123 3720 163 208
6.8086 136 -2649 -867 -562 384 745 725 1359
6.8027 -54 -25 -2493 -1368 1380 -3147 84 -1034
6.7969 2169 1192 -3114 729 1675 3076 295 -37
6.7910 -2479 1501 -1716 -984 295 629 -2464 -1237
6.7852 -255 -960 -226 -19 1549 -3196 114 -1866
6.7793 569 1682 -1638 1220 -611 -3788 -1154 1223
6.7734 -512 89 -1133 2010 25 786 -851 679
6.7676 -436 1382 910 -793 -154 -843 -1981 -489
6.7617 -1524 226 -43 -222 -883 -888 1544 525
6.7559 -296 163 -207 1101 1433 1842 -1477 1156
6.7500 -723 -2406 145 -1422 -2064 164 -599 361
6.7441 813 457 3680 348 1604 923 -864 -400
6.7383 -1878 -319 800 -528 599 -70 92 77
6.7324 198 -1411 -211 -1969 715 854 -1748 3378
6.7266 1510 -1067 -1221 -1382 1517 -574 -2948 -1614
6.7207 295 414 905 -417 -3569 209 501 1441
6.7148 -994 1486 2148 -2001 184 979 -181 -182
6.7090 988 1463 -344 -1718 -85 773 1261 596
6.7031 508 1512 -970 632 -3354 -410 -277 283
6.6973 4 -975 -2110 1433 -383 2333 1050 2075
6.6914 -1315 1843 1972 -178 -1115 1153 -514 575
6.6855 987 350 -1067 -915 -1859 -685 1137 -488
6.6797 -1459 -571 1021 -1025 651 -632 584 1299
6.6738 -625 -1564 -1594 -1618 476 1241 1386 -2051
6.6680 -2885 1400 -1448 592 883 485 326 277
6.6621 99 -107 575 -3182 140 2047 -484 -885
6.6562 183 -309 167 -2092 -235 -761 -3883 1271
6.6504 -1283 2374 238 -479 -551 1588 1070 1669
6.6445 318 1215 -1659 -1029 -273 1192 -3498 -1170
6.6387 693 -560 -1984 -327 4575 -1317 -479 1437
6.6328 109 909 2157 4006 -1078 -293 177 841
6.6270 -165 -562 964 -2087 965 854 1534 108
6.6211 2928 -448 1919 712 1023 1114 788 -779
6.6152 -2097 397 636 4027 -1540 -226 -1869 480
6.6094 -414 2100 -2718 -218 652 -457 -1944 -395
6.6035 -1869 -213 187 358 1330 -1338 -3746 -3176
6.5977 -1426 2795 -1559 -1752 929 5 575 -1650
6.5918 1128 -140 466 1750 559 -1420 -582 -2884
6.5859 191 415 1722 404 950 895 1280 -1585
6.5801 419 -1315 790 3212 642 1039 1653 -1819
6.5742 -263 319 217 907 -624 -812 1509 122
6.5684 2202 -641 2179 -1869 -1734 -1293 2 -2737
6.5625 309 -418 -2964 2038 447 -1450 -329 937
6.5566 -2206 -1917 420 82 -1469 404 -2725 -792
6.5508 657 -2740 -2020 -1435 1981 -1132 1642 1962
6.5449 -780 -2508 -923 -973 -207 190 -3767 774
6.5391 2837 287 1048 -441 -2355 1613 -673 -537
6.5332 870 459 929 -1691 2100 -979 850 -1158
6.5273 -185 -1038 1699 1141 3164 -4067 -1949 2808
6.5215 1583 -9 -1878 1158 2440 1244 -1449 -1549
6.5156 1388 -1483 -402 888 1383 -320 -645 -1297
6.5098 1340 3886 -837 1714 3166 -1846 830 525
6.5039 -1866 628 441 1263 -2612 1054 -549 1712
6.4980 1726 827 921 959 -2478 2159 -405 -735
6.4922 -46 1133 -346 -1393 -1843 -1672 -562 1694
6.4863 779 -1137 856 -56 -2766 36 1468 307
6.4805 -564 -1499 546 -464 919 -1284 768 -1395
6.4746 -401 364 947 2090 220 942 -301 -2615
6.4688 283 1458 -476 -1320 -672 -476 -1825 -3091
6.4629 377 -1091 48 2687 382 -434 1003 -144
6.4570 -2344 985 852 -1011 1492 -559 825 485
6.4512 1071 -265 -1696 2227 -3430 -1685 346 -838
6.4453 -2470 757 30 -4156 1135 206 -235 663
6.4395 809 -607 -1039 252 2571 468 880 -1430
6.4336 -2046 646 -1334 608 614 -192 1620 -1505
6.4277 -558 430 1442 -2119 -907 1206 -3467 288
6.4219 -1731 -2188 650 796 -20 -247 2394 -67
6.4160 1493 -886 -1710 2568 876 553 -691 -1977
6.4102 -2614 -816 -38 2371 2159 1483 1517 -368
6.4043 1088 -1571 938 1381 184 1291 -2334 -821
6.3984 1304 1360 -1889 1466 2091 -4296 251 -327
6.3926 -92 -382 1362 -461 1614 445 -257 -1633
6.3867 -1878 -46 -2059 1421 -10 616 2448 -955
6.3809 -880 2011 2016 723 -455 945 -984 479
6.3750 -28 148 358 1490 -477 1457 -2008 160
6.3691 45 -271 -3245 1093 -2387 1202 289 1408
6.3633 -3389 1411 -1509 -2274 -1982 -673 1037 154
6.3574 -21 -1449 2283 593 1941 844 2863 1845
6.3516 91 652 966 1016 -194 1785 -221 -122
6.3457 104 -1210 1671 1498 -531 2819 1490 -897
6.3398 -1979 -464 741 2301 940 1704 3623 -208
6.3340 2599 1221 -629 3111 914 -430 -1933 1715
6.3281 -2116 2290 -1219 1440 1724 1787 1198 1874
6.3223 824 15 585 1836 2408 783 1169 1237
6.3164 1230 848 -1802 1717 -634 -487 -1255 -71
6.3105 -2163 -1101 -1577 2720 -469 -1914 2202 1316
6.3047 -1934 -2692 905 2421 1499 -608 278 -47
6.2988 1000 -2454 2549 -1238 1683 1297 3367 458
6.2930 -2625 -864 -953 -671 2403 -1397 965 143
6.2871 1568 2979 1031 978 -1150 -1880 -727 1891
6.2812 104 475 165 1566 85 827 1687 54
6.2754 -3655 189 1890 2517 -2543 581 -675 -1877
6.2695 -1730 -1382 -2444 1419 2061 -1388 -1197 1230
6.2637 1352 58 1099 800 2824 822 763 -592
6.2578 -471 -1013 -152 -768 2011 -34 1893 483
6.2520 -662 1595 -1101 -2060 -340 1102 -301 1747
6.2461 -803 788 758 -1149 -700 1825 -1034 -537
6.2402 -507 -361 -3614 93 2515 -496 -1319 1365
6.2344 -1663 -857 -2857 -2021 -3403 501 -1145 2533
6.2285 -1055 -116 2847 -1754 -1145 1482 -916 -66
6.2227 1673 -1324 139 -1989 105 369 -634 -728
6.2168 -1301 341 719 -1092 471 986 -1510 853
6.2109 -771 -42 -232 -133 -3007 655 -788 -231
6.2051 1536 127 471 -1115 -1805 2652 -1976 806
6.1992 -1670 119 -2118 85 -624 -305 -890 1400
6.1934 -606 -1355 -442 350 1423 1654 942 121
6.1875 -2185 -2023 1357 -703 -302 -1348 -1486 -270
6.1816 1558 1377 -156 188 590 2460 1723 924
6.1758 -453 594 -681 -589 897 3477 -1638 -311
6.1699 -1487 152 769 94 508 975 -1525 3330
6.1641 945 -1243 1379 1640 -198 1400 346 1335
6.1582 1225 -69 -78 311 -1146 1331 134 -2029
6.1523 503 4468 -1757 -686 735 1569 -930 -297
6.1465 775 1787 -763 1611 -95 -2478 963 2719
6.1406 1368 -2720 354 2138 119 2389 -2958 -1437
6.1348 -1174 -1048 1068 -1619 -1603 1536 -473 -2492
6.1289 828 -432 -649 584 654 -356 -1844 -334
6.1230 -466 -773 68 553 -233 473 593 594
6.1172 1577 -2031 -1194 904 4329 -1950 674 -597
6.1113 656 1825 -159 1464 1661 457 605 -125
6.1055 161 -3122 688 -775 -49 -46 -10 -1103
6.0996 -204 -992 -1162 209 1332 2086 -243 1474
6.0938 2718 -165 -411 412 -1540 -432 758 7
6.0879 259 730 -1295 -1774 -666 -600 2151 114
6.0820 -325 323 -1238 -1402 1209 1749 -3699 469
6.0762 1504 -48 3606 2585 -1064 370 -716 -557
6.0703 1499 -643 2119 -349 1104 2908 -1456 692
6.0645 1971 1005 1623 2362 -887 400 -530 437
6.0586 -2415 1023 1758 -3596 88 -1970 -205 953
6.0527 2432 686 -10 1761 2388 1445 205 -803
6.0469 827 481 -1571 89 3053 809 1398 -1027
6.0410 270 871 502 2935 -1774 1510 -648 -1962
6.0352 -2153 1555 -550 -2924 1903 -1234 1113 400
6.0293 975 368 465 2051 140 390 -892 2358
6.0234 -1324 -1284 341 -52 -372 -752 1179 1794
6.0176 2849 863 68 995 1103 219 114 836
6.0117 1777 668 -366 160 2103 -1332 361 1923
6.0059 2271 -379 -659 3385 -845 917 2080 1659
6.0000 -1500 -228 -1886 -710 1351 -1622 1837 1545
5.9941 -674 3773 2606 761 739 2005 -1926 -2037
5.9883 2879 -625 2175 681 3352 -624 -882 268
5.9824 2453 -2782 390 730 1098 -109 815 809
5.9766 936 -2 2990 1061 -146 -440 105 129
5.9707 -1818 -2974 238 49 184 388 1646 480
5.9648 1563 -508 -220 1710 1802 -2690 495 -1864
5.9590 -809 -693 133 -1545 2573 370 -350 -1573
5.9531 -243 -1479 564 754 597 1172 465 2266
5.9473 2013 1428 317 -185 1145 -639 -1319 -2310
5.9414 1427 1515 -1407 1985 536 -706 -1391 831
5.9355 693 1245 179 -1163 3797 -787 -853 1119
5.9297 -482 -761 -1067 -556 839 1641 -83 1122
5.9238 -685 -753 -1033 -2014 -1263 -1837 -363 849
5.9180 -88 99 2025 160 147 -4297 -1118 -3428
5.9121 3260 -202 -1828 -3974 1698 993 599 373
5.9062 604 1288 794 -702 -1059 1141 -1539 -473
5.9004 1493 -2290 1598 -939 2095 -1059 36 -1663
5.8945 -1327 -661 -1990 2489 1284 1015 1941 1732
5.8887 394 -1673 -940 247 649 -1301 -28 -1515
5.8828 -375 -41 -592 -95 -2401 -2315 1725 158
5.8770 -1086 2591 602 -702 -542 982 1230 251
5.8711 309 -133 2242 -141 -1981 688 -522 1218
5.8652 1853 1995 2484 -736 -1934 -732 888 -965
5.8594 -574 -731 437 -40 95 -263 -4185 -1484
5.8535 1435 1692 1860 -82 -1123 341 -355 609
5.8477 -1876 1032 -374 169 -2990 -2737 1322 -1328
5.8418 742 37 -3300 2801 -350 -1199 -1296 573
5.8359 -1497 584 1725 1025 -360 1196 2056 910
5.8301 1816 1359 -280 -1823 200 -2581 155 -940
5.8242 2265 -2896 -278 -38 1022 -4003 -1657 -749
5.8184 1396 907 314 1406 839 705 3863 -1731
5.8125 2002 3408 344 1120 1849 -915 -27 464
5.8066 -804 1523 -444 162 -1387 311 -551 826
5.8008 336 -795 2541 -1634 918 -1242 -202 2254
5.7949 -383 -667 382 2430 -806 136 -1676 -672
5.7891 -738 978 31 -891 -1817 1998 101 458
5.7832 -80 1351 495 1125 -1142 -919 678 2234
5.7773 -1437 1807 -1224 69 862 -773 -2046 756
5.7715 159 -1003 -1990 1808 -682 -256 -1951 1667
5.7656 89 552 2079 459 -1537 -1866 458 -2287
5.7598 2790 -445 -736 2422 -89 2192 -1231 -839
5.7539 2932 654 2730 -475 -71 416 181 -1085
5.7480 1746 -1687 -579 -1236 -4560 1360 22 -1470
5.7422 1551 1071 2132 -794 155 -2645 3094 -1306
5.7363 -254 96 -340 174 1288 -277 1034 2519
5.7305 156 -1694 -2178 313 -1489 -2118 -205 -890
5.7246 -1909 -1186 -1738 2398 -499 909 546 521
5.7188 -1959 -728 931 1132 1527 -2125 -1394 395
5.7129 -2016 -612 -1187 -2166 1467 -422 585 -196
5.7070 -1309 -503 1185 1269 -1187 727 1297 521
5.7012 138 468 -782 -969 -1505 -255 421 -138
5.6953 2906 878 274 -2938 -428 -1967 -1576 1367
5.6895 -937 1348 -1835 2025 2172 2109 212 -523
5.6836 330 118 3112 2216 -2658 1730 -959 -579
5.6777 -1083 -173 1646 -70 -226 93 348 -2606
5.6719 648 2207 854 -1000 -70 2926 -2236 -3677
5.6660 -155 -562 -2676 -655 862 1341 1064 -85
5.6602 1464 101 1463 667 -450 -603 -1715 35
5.6543 758 -538 -2740 -1217 -105 1298 1917 -1231
5.6484 564 3801 -2924 -2071 -474 2270 -1534 1097
5.6426 -2729 594 -958 -346 2636 -2785 462 -872
5.6367 -960 2461 493 250 -77 1030 -1935 2190
5.6309 -2311 -3160 -521 148 -865 -562 -820 133
5.6250 420 -279 358 -959 1833 -2267 568 2124
5.6191 49 -795 412 -1609 972 -1736 -963 275
5.6133 -499 421 -1439 1849 -795 1506 -94 1669
5.6074 1039 -966 140 650 2086 -2524 1532 -2051
5.6016 46 -1540 -632 3320 414 1899 -230 1378
5.5957 2150 122 -1435 3098 -452 -1849 646 327
5.5898 -3069 1890 482 -82 1801 -2971 3170 1075
5.5840 -819 1413 1657 89 -550 -1697 -1562 -1980
5.5781 -2208 1535 -1311 -1871 2680 -116 2205 1576
5.5723 -2230 2013 908 1166 905 -1153 -1661 -1497
5.5664 -1860 -1149 -134 -1699 795 -432 -1558 -1645
5.5605 105 526 -1640 1811 -1847 -1141 1966 -437
5.5547 1463 541 -2595 533 -576 -3169 -161 916
5.5488 -2551 -2084 -2890 672 669 666 -31 -930
5.5430 1970 -2926 -361 -1769 -1339 -2207 558 -1422
5.5371 594 -125 -1134 1178 -1498 -460 2459 1889
5.5312 -75 -211 -445 -1825 -2400 1070 -417 295
5.5254 -930 -1269 1967 748 -3359 12 -2189 1049
5.5195 -296 -861 -591 -285 3106 -1672 1323 736
5.5137 895 -700 -1635 -1480 1199 -1090 -430 -872
5.5078 190 704 -2596 1380 -865 -939 766 -150
5.5020 -585 3088 224 -135 -184 -419 1880 -1197
5.4961 -667 -84 1887 -1484 -1272 366 -104 2021
5.4902 538 3482 -1610 -2490 1398 2399 740 -1001
5.4844 1759 3314 -2187 440 1893 -1148 1369 88
5.4785 2373 731 -666 1573 -1816 51 3247 1394
5.4727 802 -231 3263 1141 -1824 1899 63 1149
5.4668 -163 -1416 -3000 185 -1346 15 600 -1434
5.4609 -257 1498 -596 -233 319 1385 827 481
5.4551 -1748 128 -976 -1236 -1595 1889 137 1808
5.4492 1330 2627 -1909 422 423 -198 -271 -332
5.4434 188 779 -867 -498 -371 -739 -1933 1604
5.4375 -3467 1333 1295 -1145 -1854 -486 -1097 -5143
5.4316 322 -1127 727 -1641 1087 -3185 1784 -379
5.4258 690 889 304 1370 -1694 -1228 -1130 2067
5.4199 -657 -3758 -826 -103 -694 971 -3129 2253
5.4141 -1733 451 -1211 528 -1507 -2712 407 -1361
5.4082 977 -452 2372 746 2135 659 -712 -936
5.4023 1170 -808 -594 -316 -938 -371 600 -1410
5.3965 684 2843 279 615 23 2966 1168 -749
5.3906 -650 657 -960 172 -297 1106 -1973 435
5.3848 350 2539 730 -380 1753 -876 372 -2076
5.3789 -1980 660 50 -715 261 -2053 633 215
5.3730 349 1609 -337 -1561 198 493 -725 -417
5.3672 -1357 1716 -79 -1339 1278 -138 1226 -594
5.3613 1070 2780 4870 225 -455 223 1830 -2295
5.3555 -251 1199 1383 -1210 -240 1474 1016 4024
5.3496 -351 -2839 333 239 -412 971 -251 -1917
5.3438 2069 839 1308 -406 2015 1762 -2170 -1342
5.3379 837 -2958 -943 1032 26 -421 -2210 1014
5.3320 -550 3703 -50 33 -1444 -600 -992 2713
5.3262 -2379 1012 -829 -2176 3232 3208 526 153
5.3203 -2797 -301 698 -938 -1393 -1315 -3251 468
5.3145 1290 6 -22 530 -232 -1824 -1359 1722
5.3086 1942 810 -143 -93 -530 663 2975 514
5.3027 -2316 1153 1543 92 199 110 1226 -2486
5.2969 -1246 -115 582 973 -2030 633 1097 -2328
5.2910 -862 -16 438 -452 -121 532 1065 772
5.2852 4110 -615 -199 -159 696 -2816 387 780
5.2793 -3067 -938 1211 -825 1192 2110 675 1031
5.2734 -2555 -440 5 -2099 -187 1214 1712 -1825
5.2676 -47 126 287 -1161 382 -1468 -1445 950
5.2617 2513 821 1609 -113 714 283 -2717 562
5.2559 -1983 879 -1405 1736 1556 -1026 -1074 1865
5.2500 -1567 1186 784 247 -2455 -1416 3591 655
5.2441 187 -576 -1041 -1497 -1861 1649 -603 -4670
5.2383 425 218 -455 -62 -149 529 1582 -1788
5.2324 207 -572 -130 -158 -207 2044 1441 -3888
5.2266 -3188 -472 -964 1680 2000 291 -2061 1214
5.2207 614 -824 889 1519 2530 1546 46 283
5.2148 -962 -372 1267 -1009 -910 -1559 945 1425
5.2090 -1544 -616 -50 -1416 -495 834 -614 -333
5.2031 -940 -1782 238 -1417 -380 1293 60 2625
5.1973 843 538 -665 -1267 961 -1955 835 741
5.1914 -1624 312 878 -1470 -376 -427 1741 1359
5.1855 -714 -1378 176 -356 -1631 -81 861 -250
5.1797 1006 785 -1451 -3296 -1580 -2644 1353 -285
5.1738 -3063 -1769 1544 -2391 335 477 -1452 1587
5.1680 -3479 -670 -2595 554 119 -636 -2399 681
5.1621 1363 -572 -18 -1252 -1019 1952 -34 -279
5.1562 -1263 996 -3081 1146 -1453 1304 2330 1458
5.1504 181 3874 -240 578 3624 -828 1960 2510
5.1445 1013 13 -50 -524 252 -622 -598 1057
5.1387 -1656 -1964 1700 -816 586 1554 -2396 -713
5.1328 -740 -1260 -634 -208 -465 -599 3122 -252
5.1270 2109 2928 -2190 -917 -1917 1267 98 999
5.1211 -2652 749 714 -1407 -96 311 2337 1369
5.1152 -2746 -1366 740 -1035 -1385 -2351 -597 662
5.1094 -84 783 -1406 -2446 -1149 1385 -1535 -2292
5.1035 1940 1629 1189 -227 -2424 -2514 696 2663
5.0977 -652 -63 -1717 1149 -2090 -766 1415 2721
5.0918 -1047 -506 1196 -443 -1003 -1048 -76 111
5.0859 -866 1883 -1443 466 143 -991 -2523 1069
5.0801 -1267 1686 328 323 -1121 -2748 -1062 993
5.0742 -859 -420 1440 813 -847 2278 1525 -329
5.0684 -2014 -1088 2042 -485 -1475 -338 717 770
5.0625 882 90 1212 -357 1617 -1513 2223 718
5.0566 -966 -46 1090 -141 2351 -975 -1898 1895
5.0508 -254 1020 3636 -613 -479 -2583 -1724 -737
5.0449 1178 -130 832 2393 2106 -1428 1527 161
5.0391 2398 1449 1396 -1403 4419 523 429 -3347
5.0332 139 1770 1647 188 1618 -44 -559 -3845
5.0273 778 169 -1710 246 -1469 -1584 -381 -122
5.0215 -945 300 1592 -67 67 -120 1119 418
5.0156 108 49 1823 2059 3544 -146 533 1638
5.0098 1003 -1974 -2791 -2749 -871 -188 -1580 1238
5.0039 -607 1931 -1776 -2817 -43 1614 376 854
4.9980 -2486 28 1273 2250 -441 4784 2164 -211
4.9922 -172 -272 -1527 1059 -524 -757 -1503 1992
4.9863 -443 -98 1542 -1714 546 84 -1202 -1556
4.9805 1868 96 -1851 861 574 744 2410 148
4.9746 -2342 -1425 438 252 1726 2241 1065 -446
4.9688 -1746 -842 1162 3012 -770 1146 1747 -147
4.9629 -1185 -58 -2282 -767 388 -1417 738 538
4.9570 -577 -1177 2447 -1187 269 -272 669 1089
4.9512 -243 70 1124 -2093 -969 -287 -155 877
4.9453 701 1793 -199 517 1085 -1403 612 4223
4.9395 -494 -2997 -892 1751 1897 -2830 -2019 3283
4.9336 -434 802 1348 964 20 28 629 -492
4.9277 -959 -351 2094 -2495 438 -2497 252 1493
4.9219 -378 535 405 2452 1005 685 -903 -300
4.9160 -502 -1224 -1348 1329 -2670 1872 -499 286
4.9102 -1595 -341 -492 1309 324 -166 505 536
4.9043 -988 2012 82 2010 495 -661 -2455 -1799
4.8984 856 -309 -27 3505 2684 -1273 2133 -1038
4.8926 1950 759 -421 1296 748 -1157 -67 -2464
4.8867 2713 751 2504 -1193 1618 1164 342 280
4.8809 4861 1650 -1376 -1105 2436 -1680 -34 -466
4.8750 -2157 3018 -749 772 -1520 3093 2070 453
4.8691 1303 1450 -1337 -1962 355 -184 512 1322
4.8633 552 -2586 543 826 386 -951 -584 -911
4.8574 -2649 1431 -1413 -445 -1187 1828 2528 2807
4.8516 -1180 365 -1241 882 679 -131 837 -1964
4.8457 1976 -341 -567 -1379 -1250 274 -1720 205
4.8398 730 -131 2323 -1259 -1251 2743 2056 2711
4.8340 -865 -2253 1416 -1493 -1708 1182 3107 -418
4.8281 -1624 -1236 -114 -2084 -105 -2474 -1449 116
4.8223 -259 -1253 1445 323 -1230 -1118 -1131 1724
4.8164 1882 1799 -646 320 -1292 316 1786 -986
4.8105 620 -313 5267 -538 17 -1853 -1118 673
4.8047 -664 -728 -165 -2640 1529 483 1025 1944
4.7988 1607 414 -881 415 248 -439 2725 -301
4.7930 1221 -753 245 -1453 33 615 -99 2006
4.7871 -775 -323 -1600 -118 -493 932 1140 850
4.7812 -887 12 660 -1316 1895 1602 1203 -1037
4.7754 3423 -2735 -975 757 732 734 -853 1673
4.7695 2079 -434 -654 1434 1727 -117 -209 -715
4.7637 -1012 -1329 100 2239 1052 -663 -842 804
4.7578 -2477 -723 1221 -2012 -201 -495 3312 -728
4.7520 -1348 -1757 -1736 -671 333 321 2151 1197
4.7461 -2262 1495 687 283 301 789 -918 284
4.7402 1040 -84 1265 2079 -1648 1921 452 70
4.7344 821 -119 764 -2689 234 2984 1336 1714
4.7285 4537 1526 -901 911 368 1657 403 227
4.7227 889 548 -198 -208 1658 -1363 312 -2556
4.7168 206 181 1158 8 921 680 763 1233
4.7109 1110 807 1106 1556 1021 662 -2189 -1797
4.7051 404 287 553 180 2701 666 -1102 649
4.6992 -2551 -512 422 2122 -2056 -331 -2583 -202
4.6934 233 -2057 -1423 672 790 -1197 -69 -2262
4.6875 -1743 -1589 -858 -10 92 157 1461 116
4.6816 -1697 -150 -976 -741 -12 -87 -566 -4407
4.6758 37 1734 198 599 -146 970 -151 -3088
4.6699 554 635 2430 2513 1875 1460 -1060 151
4.6641 512 -1573 -2825 -909 -618 -1586 -2145 -1111
4.6582 373 1390 -87 349 -2841 -2646 2328 -848
4.6523 1206 2251 -2018 -940 -1274 -3461 -709 -1457
4.6465 1908 -624 1242 232 -1300 866 -835 394
4.6406 -2875 -671 212 554 -2209 492 -984 -481
4.6348 -353 -1444 624 325 -2586 2183 -1454 -1242
4.6289 -2700 2144 986 -506 1005 716 -1534 -2411
4.6230 1188 -1415 94 1325 284 2722 -596 -973
4.6172 -3234 -102 1261 1176 -638 -1156 -130 401
4.6113 -1479 -394 -548 -272 53 -72 1474 -2031
4.6055 103 716 -1677 1486 -798 879 456 2107
4.5996 2197 -1738 1391 -661 1281 -314 1329 232
4.5938 -2246 686 -1979 -2010 644 507 2236 8
4.5879 1467 -706 3226 81 1893 318 1978 623
4.5820 -1153 -1300 -164 -1392 3688 395 2506 498
4.5762 -870 -528 61 183 -1366 2974 500 -605
4.5703 -1702 1438 3294 -334 -145 2922 -716 -988
4.5645 163 891 -1014 1227 530 -409 -1769 2554
4.5586 1255 -895 2330 -1307 589 3869 937 -2756
4.5527 0 -1043 2104 2553 2330 -2315 -211 -337
4.5469 822 2240 236 4320 -2307 -201 3105 235
4.5410 4057 976 2950 -606 -989 -1168 -2492 -1460
4.5352 -917 937 317 -3572 -37 848 5534 -1810
4.5293 107 -3115 740 -134 1522 1753 1305 4009
4.5234 1519 -360 -1601 -775 -1226 498 -1815 -838
4.5176 -1183 1175 -694 -498 -688 520 -779 -2792
4.5117 -884 -488 988 -1081 3561 71 632 -1066
4.5059 -187 -2268 299 1338 -128 2449 1690 536
4.5000 119 1966 -338 -1777 -2576 -1059 -2137 -382
4.4941 115 1784 -1215 534 -53 -138 -1910 -768
4.4883 -1275 2046 571 915 -1498 11 1832 527
4.4824 840 75 -367 -2074 1731 17 817 -138
4.4766 -261 -1277 -3980 185 1270 601 315 -517
4.4707 -2223 -2217 2236 2156 2563 -3398 990 1104
4.4648 -1555 726 -1475 -1457 -4602 2229 1017 -1998
4.4590 1373 224 -221 1544 -355 837 189 2008
4.4531 619 624 671 834 2495 -2944 79 -4505
4.4473 -1390 2256 -1660 1761 1030 -322 -1422 885
4.4414 254 3372 732 -418 1155 1614 1081 1106
4.4355 -1174 -1209 -64 -101 229 -1749 -2584 -1143
4.4297 -1352 -1410 -470 109 35 -2294 778 -500
4.4238 -1188 478 -96 277 -1400 231 -659 72
4.4180 -1912 220 -1524 420 -402 -2469 -1139 2111
4.4121 768 888 -1574 2580 1610 958 -354 -1584
4.4062 -1813 2645 -3857 372 -566 476 -103 -299
4.4004 629 -986 2439 643 -503 -1528 -1114 693
4.3945 -1047 -24 -1602 -1156 313 -116 -1177 -1336
4.3887 -518 -953 192 780 715 1805 599 144
4.3828 147 -40 -164 403 -2730 1135 1419 -1018
4.3770 -711 -1651 -1490 -1024 2613 -1576 691 -1085
4.3711 129 -2030 2224 -2063 1106 759 895 -1291
4.3652 126 881 407 -2996 -1589 -447 585 -944
4.3594 1425 -1518 1590 -118 -1531 -2767 1506 -560
4.3535 -24 2074 -1123 3207 755 -2269 -630 -334
4.3477 647 -233 1559 2277 -943 -1559 -196 -924
4.3418 1554 -532 -3033 2015 1511 1104 -1661 -1959
4.3359 -1344 -468 -525 1619 -159 -1670 -199 2520
4.3301 -1558 2856 -1895 -266 -241 704 1424 420
4.3242 1122 -1272 289 -714 1332 -254 -1081 950
4.3184 -553 35 -4109 1256 270 -2200 1898 -2918
4.3125 46 -2688 1526 -2038 -3840 891 1061 -636
4.3066 455 -573 279 414 665 107 -254 -653
4.3008 1991 -1773 -16 277 -1982 -1941 -1241 0
4.2949 2087 -1271 -932 234 -162 -2107 1320 4198
4.2891 -1310 1010 2262 -85 717 334 3483 -1990
4.2832 955 200 -688 -634 -824 -338 1608 2428
4.2773 -301 -794 1002 -451 -573 2178 -734 -557
4.2715 -2078 757 -1046 -102 -1587 -561 1507 1148
4.2656 902 731 328 -109 -1889 -576 595 -2164
4.2598 -701 3256 -383 -48 -68 135 -2185 569
4.2539 -830 -633 4098 171 714 2153 -2163 168
4.2480 -1025 1156 2463 -637 989 1547 2643 -1070
4.2422 -2284 527 1425 1274 -192 -227 -75 1427
4.2363 -408 -492 -1217 674 -3008 489 -89 2768
4.2305 -1059 -1328 -3242 231 1849 -863 -2376 -1390
4.2246 3022 -1184 1257 -48 -1013 -1076 670 -58
4.2188 -2741 11 1249 248 -2689 -4656 -335 -2110
4.2129 123 1416 1861 -575 -535 -1251 -445 243
4.2070 -1170 -1526 268 1979 -196 160 752 -839
4.2012 -1892 -196 1003 -1488 -487 -614 -1353 -509
4.1953 768 -234 -656 306 -1534 428 1438 32
4.1895 -269 1293 778 1120 950 -2137 1821 -157
4.1836 3570 -2860 932 -2741 -2497 727 679 915
4.1777 538 -2431 1092 845 257 750 2081 -950
4.1719 -326 2083 1451 529 1054 -608 -1589 920
4.1660 1197 155 488 -197 0 -1026 -277 -351
4.1602 -258 53 198 -76 1639 -293 1698 -268
4.1543 290 -2400 871 1073 1328 390 1776 -1696
4.1484 875 842 1975 -406 1648 -1886 1565 534
4.1426 3099 -1220 118 155 873 1378 -281 -761
4.1367 916 -1213 679 -3474 705 -2738 -335 1218
4.1309 -414 434 305 4347 597 20 -219 1417
4.1250 -832 -791 642 1758 969 237 -1444 -1060
4.1191 -2456 1139 -1052 -267 -109 -675 104 739
4.1133 -1819 1008 -1888 -543 -6 -1180 130 1440
4.1074 -2259 -2126 261 -912 406 741 -674 767
4.1016 2646 -1770 -693 -2970 2778 2175 1408 3899
4.0957 1244 -790 1002 1943 -13 1998 976 -444
4.0898 -2386 1122 -1311 689 -3541 -1460 -542 -106
4.0840 -43 -542 908 -97 -264 1865 1214 1502
4.0781 -1369 2134 -210 2291 1931 2690 -595 875
4.0723 1073 439 605 704 1834 137 -3620 1221
4.0664 1810 520 -515 871 2231 -1993 -899 1498
4.0605 -878 515 -468 -8 198 1404 -327 -1092
4.0547 1375 -253 404 316 1575 -1629 -708 3139
4.0488 -2257 232 -687 -2850 -2314 -3153 -2373 -681
4.0430 1192 353 -1584 -409 2705 106 -3314 -1735
4.0371 1232 -1550 -751 2510 -1867 2275 -950 -1893
4.0312 2282 -2968 -357 1794 2716 1191 238 -2521
4.0254 146 151 721 -1662 -565 1814 2894 -864
4.0195 1575 983 45 -1900 -1488 -702 487 796
4.0137 -375 978 -1895 -1353 31 -560 -273 2292
4.0078 1134 721 143 -1167 -535 871 -1008 -160
4.0020 809 -1375 1447 -1307 1535 -2270 -1357 -41
3.9961 2363 -912 100 -2195 4597 -2626 1003 -2818
3.9902 -267 930 4406 -293 2487 -1467 450 -112
3.9844 95 -1098 2959 -815 1580 -336 -232 -855
3.9785 -1713 -2061 -567 -388 1849 2638 -1599 -2394
3.9727 2874 358 -2270 1014 -3013 1103 -2438 481
3.9668 643 1333 -209 -78 -1163 -2697 597 -188
3.9609 -1724 -1933 -319 -3231 1251 1460 -551 -700
3.9551 590 1211 174 -332 2888 -1035 1096 660
3.9492 890 992 -1648 1662 489 1155 1041 -767
3.9434 2158 1493 1045 -1387 1708 -16 38 -1119
3.9375 -472 -1070 1177 -657 -2237 86 -2890 -270
3.9316 -1313 2115 123 -2406 290 1624 1063 1828
3.9258 -2574 -120 22 2887 -529 -2 -2504 -2467
3.9199 -1854 2399 1000 -1969 518 -938 -493 1496
3.9141 -804 1576 888 -603 1167 -1569 -472 705
3.9082 -170 1783 -5312 385 1499 -1305 -647 2855
3.9023 1151 -3660 -2197 -2663 -1756 1050 -617 -602
3.8965 -2885 -280 -2076 -1009 912 1406 -1411 795
3.8906 1194 -28 1754 -425 1359 354 1133 811
3.8848 1884 512 -1558 -1967 226 -2679 -145 -250
3.8789 739 -1725 -2081 602 -81 675 1957 -470
3.8730 -1034 -404 332 1637 -1327 270 1508 535
3.8672 689 -118 -1253 2855 -1835 1607 423 -71
3.8613 2440 -946 769 555 1147 -1782 -989 -127
3.8555 1465 670 -1214 -3300 576 -1554 2145 -188
3.8496 2853 528 739 -2302 2318 1269 -1171 374
3.8438 -1132 -562 -188 1717 -1204 -161 -2196 -284
3.8379 -1037 2238 -377 -390 400 32 1099 1219
3.8320 989 -2855 2560 1928 1334 1686 -539 939
3.8262 -513 -1407 -469 210 702 -239 2332 3399
3.8203 -14 1571 760 -1773 727 -1810 -1414 -160
3.8145 -906 282 -2537 2136 -522 2868 -952 -1387
3.8086 -384 -1345 -519 -1351 762 -251 -79 -196
3.8027 2232 -976 2357 -643 850 -2014 3211 -201
3.7969 -1467 -742 3117 -1546 -173 1196 9 -1610
3.7910 -88 1699 808 517 153 2149 374 410
3.7852 -811 -21 539 -682 1940 -1958 1493 1693
3.7793 1352 -2336 387 1627 -1429 -933 -2199 -1237
3.7734 761 -840 -2777 635 -1401 -2973 -362 -2678
3.7676 2829 -1589 1762 718 -1174 1005 29 -56
3.7617 -1678 -1127 -2155 -647 -97 530 924 3200
3.7559 -853 726 49 343 -393 937 908 1376
3.7500 -882 2786 -1450 613 -1430 -1224 -585 -425
3.7441 -1207 -809 -3805 873 222 -413 -1310 -21
3.7383 354 -1286 516 -2424 -969 -320 2343 -239
3.7324 1266 1419 854 -434 -2505 542 -1008 1466
3.7266 -823 1684 -833 -923 2935 2991 1310 -3175
3.7207 2157 -2167 -515 1199 -71 615 -512 -2
3.7148 1452 514 -950 804 1199 313 -1187 597
3.7090 -1750 -52 872 676 1623 812 292 -1119
3.7031 474 -661 -59 2139 -725 -2483 -22 3102
3.6973 -3057 173 178 -1404 1405 -164 -300 -882
3.6914 -324 36 -632 1165 -630 -1322 1265 3729
3.6855 -485 -1607 -1482 131 1870 -1074 1191 -2352
3.6797 -1985 -136 336 995 997 2850 957 347
3.6738 -279 903 -410 2081 558 -652 2136 -678
3.6680 27 1864 1718 1138 2237 -661 152 800
3.6621 -177 -2419 620 462 311 138 -589 -96
3.6562 -1227 -1117 -1782 -1164 1494 1278 -209 1817
3.6504 -765 1731 3845 1048 -1019 165 -1293 -620
3.6445 382 -1389 -3436 -736 758 -1864 774 1701
3.6387 -1253 -9 1221 77 -753 -102 -1008 463
3.6328 386 1229 1158 1541 -1818 -2602 -1573 589
3.6270 -933 -1243 -3389 -138 -1492 2143 -596 -1383
3.6211 -1568 -928 251 1866 1739 -639 3125 1952
3.6152 1948 290 296 -2028 -1232 -1393 -2001 2865
3.6094 574 -2442 -2446 -502 691 447 -593 -1211
3.6035 -845 -1621 -612 3177 432 -3463 -2149 -3684
3.5977 2151 -647 431 -1001 2527 50 -1759 -1622
3.5918 -1924 911 -2015 2990 -856 1021 779 483
3.5859 -2177 2129 -1087 559 760 -4741 -747 854
3.5801 394 375 918 -767 710 -5734 2873 -3825
3.5742 355 866 -1163 -1225 342 -1771 -436 -391
3.5684 -2262 1770 1733 1466 3771 581 -1056 -946
3.5625 -650 467 -1988 -622 2377 977 1187 -2882
3.5566 -1757 2555 235 559 20 -506 1491 1526
3.5508 546 882 1712 1845 -1402 -493 -1783 1354
3.5449 -1820 812 2181 -265 842 -81 -104 -751
3.5391 1832 -1083 1450 -286 312 -2409 -936 -53
3.5332 -128 1098 -344 -1666 710 -553 1226 1603
3.5273 -208 1674 2718 3917 -732 2642 1619 1095
3.5215 -415 -742 -2038 -2229 1021 -679 361 -1171
3.5156 -92 -1747 -833 1407 2391 567 2080 571
3.5098 821 955 1172 1058 -1802 -3559 -2496 165
3.5039 2188 -658 -1468 -724 2240 -760 158 2065
3.4980 1099 -2243 -111 801 1211 -2289 -2077 545
3.4922 -594 -1507 -2137 1053 1010 -632 1734 -1475
3.4863 3018 2787 -851 62 -974 835 28 852
3.4805 833 1321 -1304 1352 2979 -168 -2371 1377
3.4746 3561 -1153 702 -451 -231 254 -586 -422
3.4688 119 1462 -37 -241 1066 -677 -271 -2015
3.4629 681 696 374 -1683 1209 1120 2049 -2505
3.4570 -1499 -1910 -553 94 -1918 -1486 2322 -670
3.4512 -2756 -871 -723 761 -2765 78 -1356 24
3.4453 147 -145 -1893 -4530 -541 -2050 -1180 -3195
3.4395 -454 2598 -1568 1073 -1440 4124 -2520 -427
3.4336 370 438 -1961 2156 -108 -654 1976 616
3.4277 -723 -1266 -8 2559 -2379 -334 -783 -461
3.4219 -2050 1992 -786 -200 277 -707 2957 3027
3.4160 2354 824 1209 1450 1095 700 1098 -2153
3.4102 -1859 742 -493 6 -1324 7 -785 -831
3.4043 -1306 447 -741 -1044 -1943 -211 -1849 2954
3.3984 -1097 378 -1440 1990 1340 1928 -3573 -1880
3.3926 -779 72 881 -2240 -1961 -547 -913 -93
3.3867 -510 1728 -1315 -2491 -1382 762 -1338 2122
3.3809 -688 3128 1116 -533 -2260 -204 2748 1049
3.3750 823 -1566 -1349 155 -897 38 1001 1318
3.3691 -770 -112 -449 -655 -341 -254 1869 -1434
3.3633 63 -60 -1782 -998 1799 582 508 910
3.3574 -166 -2156 -927 -1118 679 888 -1517 668
3.3516 1823 -2402 1217 437 233 878 -706 -1795
3.3457 1446 1423 -1174 806 1910 -1690 2259 2314
3.3398 910 -1134 951 -697 1048 -1563 -1480 2999
3.3340 1505 1737 -636 -1558 796 796 -797 623
3.3281 679 -440 -1978 -2545 -144 -9 221 641
3.3223 -622 1916 -1662 -2452 -3037 -810 826 -1404
3.3164 252 -1983 -1971 -371 -1424 1075 1087 1575
3.3105 954 -927 -1368 -2110 -996 2285 2644 -946
3.3047 -2604 1800 1335 -1192 -2476 110 603 -916
3.2988 98 328 660 1463 -367 2548 2388 -488
3.2930 -908 -1854 -837 -442 0 337 -1240 39
3.2871 -231 2276 -228 -1381 -94 2379 163 1044
3.2812 2666 -182 -269 2539 -441 -921 2490 -393
3.2754 -764 1545 890 -3220 1468 -670 -95 1912
3.2695 876 1772 896 1967 822 -530 880 489
3.2637 3644 -378 -2082 2521 383 2259 1434 13
3.2578 -367 -171 -1814 -44 1890 -2092 334 2152
3.2520 764 472 -414 -1491 1109 800 2127 229
3.2461 1217 492 -292 -1903 -11 2685 688 -528
3.2402 -714 621 -551 597 -1666 -371 -1526 -1916
3.2344 -1891 1545 297 -1156 -1314 341 -961 -2385
3.2285 -1379 1474 2674 387 238 2216 -556 2757
3.2227 -43 -238 502 40 -512 224 1155 1483
3.2168 1748 1420 -373 -3092 2026 -794 551 484
3.2109 1062 1499 166 -51 -3491 55 -618 -3086
3.2051 -459 692 368 48 -1967 52 -1412 -1032
3.1992 2479 -1933 215 -1334 -805 -1126 -34 8
3.1934 -2788 391 2505 -1712 351 -1814 825 -1675
3.1875 1312 -79 -333 1390 4160 -516 1795 2902
3.1816 -2345 -1634 -1216 -868 879 2481 -1361 2000
3.1758 -1132 -1133 1023 -1334 -690 1772 -259 1822
3.1699 456 1586 507 4394 -1490 520 -977 3366
3.1641 -90 532 296 1177 4339 -2497 -1250 468
3.1582 -1511 1008 974 18 588 36 -1379 -2003
3.1523 -596 -343 -300 2084 -285 597 -552 -644
3.1465 -437 540 1905 -776 -2735 -2539 -2250 -2836
3.1406 -2306 -1725 1019 -341 2243 -2527 540 543
3.1348 1104 1327 -1108 870 328 -584 -2 -60
3.1289 -513 -2609 -72 948 2423 -1240 -310 60
3.1230 930 1235 -179 -1220 2036 -858 4545 1773
3.1172 -831 2934 128 -2438 -1428 3149 1234 1884
3.1113 3163 -531 387 759 1202 -2515 -1596 2240
3.1055 -2469 -2865 -1344 -2553 -2317 -1036 -2350 2121
3.0996 -1180 2594 -296 370 1319 -1311 -192 1865
3.0938 1213 690 283 2137 -467 -1995 -1091 -258
3.0879 -3015 546 -1641 1669 905 -688 -1336 -760
3.0820 -238 -366 1156 178 704 -1227 -2557 1656
3.0762 -1677 -9 1088 -1772 -456 -2239 200 -626
3.0703 -1422 -1434 -433 510 -339 1347 -60 -257
3.0645 230 -219 1952 39 -486 -171 -2170 -599
3.0586 41 2463 -299 -351 -1714 -462 -426 -1964
3.0527 2326 -701 1497 206 -1734 1401 167 -432
3.0469 774 -2138 1493 -536 -832 -500 -169 90
3.0410 1547 1602 -1504 -839 263 188 565 -407
3.0352 856 184 -1756 -642 1187 -2485 1257 802
3.0293 -1215 -1376 -370 -1171 -807 1275 -546 -1867
3.0234 1525 -2629 573 -58 23 -1236 -771 751
3.0176 45 3236 443 2428 -1158 1196 -970 104
3.0117 2981 1655 117 -1836 1034 107 4790 1671
3.0059 -580 -873 1291 -2209 -557 -3728 -261 988
3.0000 3563 665 -1203 -600 -2339 62 418 330
2.9941 -2013 1350 513 1402 -1606 -411 781 702
2.9883 627 302 -2491 -1356 2289 720 398 -576
2.9824 974 -213 -504 2328 551 1881 -888 -2062
2.9766 936 -707 632 1173 -489 576 52 -2414
2.9707 384 880 -331 1817 -1150 -2026 -1104 1231
2.9648 -859 -3261 2783 -3556 -424 -2052 -1397 -2753
2.9590 492 -1191 2082 295 -683 517 -1281 -355
2.9531 36 -37 1032 -1707 -1819 1169 53 -126
2.9473 671 -199 776 637 -3588 2213 -38 2277
2.9414 -48 981 1208 -1739 708 -1617 967 1463
2.9355 -1105 1876 583 232 -731 -1190 -292 1241
2.9297 143 572 -557 -525 -1169 155 -567 2818
2.9238 -1781 -1004 -925 -59 -721 2309 2913 302
2.9180 -1072 862 -553 544 -1220 1096 -161 -1133
2.9121 1924 510 582 1616 -1025 -232 1016 -1627
2.9062 3251 -537 2060 -1802 593 -478 280 338
2.9004 -2804 -105 985 -2341 -2046 -242 -771 -637
2.8945 1491 -2641 1121 930 -671 379 640 359
2.8887 -2625 956 298 -1758 -3088 -194 1751 1420
2.8828 1281 2432 -146 2100 -1254 -882 -362 -1158
2.8770 3227 -1835 1967 -85 -725 908 852 -2402
2.8711 -1323 1906 3523 421 -1054 1317 -3153 2710
2.8652 2335 -861 -562 -1446 1646 1125 1486 -681
2.8594 1561 1628 1489 3918 1822 792 1977 798
2.8535 29 345 -1215 2351 -259 544 -2321 -1219
2.8477 -254 1962 -1288 2858 1785 845 2566 -1691
2.8418 -1127 1582 705 2137 -223 -836 -933 334
2.8359 979 -2039 -1835 -2086 -874 -587 -713 -2429
2.8301 1280 1593 -315 -2969 18 324 -1868 -558
2.8242 -1660 2299 -766 -3577 642 98 355 679
2.8184 498 1220 888 -939 434 -195 1449 -650
2.8125 -1947 504 -351 2335 313 332 2416 -895
2.8066 -1514 383 -12 1037 102 -578 293 618
2.8008 966 899 2311 2026 1037 12 -233 -1707
2.7949 -846 884 -2230 518 -1292 -941 -1786 421
2.7891 1761 1554 -840 338 369 2029 -2862 -3275
2.7832 -559 1204 863 -1281 1511 2641 534 -1503
2.7773 974 -609 1546 301 2277 -939 478 773
2.7715 -1825 729 1264 -1999 331 -1137 -2450 992
2.7656 485 1011 104 -3373 253 -1704 216 -481
2.7598 1023 -2928 64 432 -649 2555 -1278 -1261
2.7539 568 344 1048 -1902 -3787 2103 -945 -1201
2.7480 -795 1366 2068 1029 -1149 2414 -230 -1065
2.7422 -96 -730 -1502 -33 -1731 -1625 1214 -1814
2.7363 352 968 695 505 58 2879 504 1732
2.7305 -1253 891 -580 3191 -1299 472 365 -1715
2.7246 -562 -181 2582 -1539 236 1171 -3001 3218
2.7188 2418 1844 494 1037 2738 1266 1632 568
2.7129 1861 -1109 1873 -424 3444 -829 661 879
2.7070 -1521 -1409 -1704 635 437 -243 -897 1193
2.7012 -1359 1700 701 -74 76 -224 5 -489
2.6953 -209 2537 3095 715 -3850 762 283 -2129
2.6895 2054 584 -3855 420 -1431 351 -1768 2488
2.6836 2511 -1789 -1993 1874 -894 -123 -4469 666
2.6777 392 741 1690 -329 -230 -1525 1541 1708
2.6719 -519 207 -1872 2826 2259 317 -3100 2143
2.6660 -1452 920 -3103 1832 2724 1752 1460 491
2.6602 1632 -118 -2183 -550 -2399 283 2743 -476
2.6543 421 -389 -2 410 2206 1282 -869 424
2.6484 1231 3136 2390 3044 -2015 1184 3054 694
2.6426 -1117 2259 1980 1503 290 950 -35 153
2.6367 105 -1194 495 1080 1592 1178 577 -581
2.6309 2470 530 -443 1489 -619 206 361 1559
2.6250 924 2391 2025 1077 297 2020 2460 559
2.6191 4015 1170 3324 2278 -100 3238 3099 770
2.6133 4270 139 2855 1208 1986 1570 1610 4606
2.6074 2987 6235 2104 4084 3661 5268 2842 3540
2.6016 5880 4603 7425 8441 6841 9829 5328 8265
2.5957 8095 10592 11867 13117 14484 16011 17357 21929
2.5898 21891 25498 34977 39614 45937 62097 75892 97709
2.5840 128086 185604 274123 434328 699660 999774 973893 663787
2.5781 408004 259852 174203 123721 94190 69698 57414 46106
2.5723 38092 32112 27184 26134 19312 18229 16647 14519
2.5664 11878 11068 10197 8218 6982 8904 7292 7877
2.5605 6181 5204 5540 5601 5210 6752 4189 2879
2.5547 3122 3618 1633 3824 915 3807 2006 2924
2.5488 1682 332 2377 1531 3829 3784 1357 -318
2.5430 1040 4708 409 2321 -660 -709 2424 1310
2.5371 2005 1593 708 1583 1811 -1145 3419 1681
2.5312 2980 -1552 -704 -1 -208 575 -761 1116
2.5254 -1283 3503 795 -1063 683 -24 1355 1408
2.5195 1340 685 3740 3138 -267 1670 2529 792
2.5137 987 -1225 749 1703 -2246 338 1954 1855
2.5078 1296 527 -265 1584 1044 890 2518 222
2.5020 74 1032 -303 2971 1967 1591 -1299 3737
2.4961 1995 -1162 -1742 -463 1275 1924 1944 -395
2.4902 1152 1617 690 735 1436 -950 -3890 198
2.4844 -156 1879 1143 3941 249 4542 2759 1883
2.4785 186 2577 1082 3977 132 20 131 391
2.4727 3179 1142 -1607 -146 2725 1534 992 296
2.4668 2576 1705 1255 3528 3895 3425 -591 2843
2.4609 509 -1598 -1419 92 1500 1790 2256 635
2.4551 1254 1235 2151 113 3062 2065 -3217 3228
2.4492 4651 -58 1994 2133 3911 3515 4674 324
2.4434 3235 1215 3052 2418 2440 4234 2288 1048
2.4375 2989 3141 2796 2979 3439 6787 6962 5074
2.4316 2074 5606 6718 5942 8659 7772 8437 8163
2.4258 6667 10906 8581 15732 13825 16351 18793 19376
2.4199 24128 26687 33743 36646 45392 57012 72447 91881
2.4141 126821 179584 262066 411334 664651 976570 1000000 699308
2.4082 430801 271124 184377 128549 96068 74258 58075 46571
2.4023 38385 33046 25746 23367 23924 18266 16935 14930
2.3965 15107 12123 8320 10759 9537 9159 4952 6540
2.3906 6806 6919 4869 6429 3488 2618 2799 6712
2.3848 3443 2883 5010 -565 -963 3516 4092 2796
2.3789 4046 3535 2651 1409 3294 2470 2440 1168
2.3730 -295 1911 255 3624 1698 1088 3627 3021
2.3672 -953 2799 537 -1780 1428 2115 1591 1216
2.3613 2932 292 -860 639 -424 2101 930 173
2.3555 989 2061 -1435 -1122 -1242 1791 3048 1401
2.3496 1790 -106 1012 1013 1717 1383 -1957 1024
2.3438 -161 -310 -2600 965 955 1460 934 1255
2.3379 -712 -762 2725 -1242 -411 480 952 517
2.3320 2147 17 -916 1787 2242 730 -1584 -27
2.3262 646 2329 1031 538 -385 1886 -598 777
2.3203 2156 2314 762 1421 1854 -296 2392 -341
2.3145 -944 1545 -873 2504 1239 273 2403 810
2.3086 928 789 -307 1344 -569 -96 1623 -513
2.3027 1411 3019 2618 -336 1421 1238 1351 -256
2.2969 -275 1003 58 1734 581 2139 587 615
2.2910 -1583 2633 1383 -1091 652 -2443 -1383 -2329
2.2852 361 1993 581 -343 1718 503 -2608 -1303
2.2793 -523 333 1326 2487 -1816 -564 -549 -1533
2.2734 991 2261 -2467 175 2683 -467 410 -1080
2.2676 506 -1071 1014 -241 2262 -1390 -1508 637
2.2617 425 -1440 -232 -2848 -1629 958 1675 -1820
2.2559 1393 -21 -872 1322 -1930 1628 -1638 134
2.2500 863 -792 -892 -847 920 347 -32 484
2.2441 -1328 -2207 1787 1015 -152 3466 -358 302
2.2383 -776 -223 -381 34 875 -3352 -1686 -1100
2.2324 -301 -1471 832 -1290 2588 1560 -1577 1714
2.2266 2221 1284 192 672 -807 -271 2606 -2194
2.2207 922 723 1057 -1490 -4374 -740 -1433 1983
2.2148 237 -1822 2649 605 -2634 -749 1254 -2784
2.2090 -152 -1113 1438 248 -2268 67 869 -636
2.2031 -470 1171 -1368 -851 256 2031 -1553 -605
2.1973 15 -457 1450 -658 -1799 -512 1445 -20
2.1914 -712 -2184 1054 -2489 1632 338 -615 -602
2.1855 -980 71 1863 -518 -104 -839 -236 71
2.1797 -1427 -797 1050 2500 -3439 1690 -431 -648
2.1738 -4 1193 96 -621 -3045 249 1154 -1692
2.1680 -2640 320 2085 2919 -1118 -1740 1578 -1733
2.1621 -138 377 -1099 -866 1499 83 -664 1961
2.1562 -250 -305 419 789 -2527 856 -492 253
2.1504 -671 868 -1461 1962 -1738 -1992 181 -1435
2.1445 -4636 802 -589 848 369 -815 -732 -2986
2.1387 -540 478 -558 577 1725 79 2401 2281
2.1328 2182 -1725 -858 883 -1012 585 -23 990
2.1270 415 -3414 11 -265 -3411 1821 2466 79
2.1211 -1225 429 -1494 -854 1200 2783 -678 -1044
2.1152 -2856 -605 -132 -2530 -1457 -1146 1716 -2527
2.1094 524 1384 1848 233 1286 -894 317 -1104
2.1035 2355 -1800 -693 831 1687 770 -378 -979
2.0977 134 -191 2751 397 1603 699 381 1731
2.0918 2067 4047 1096 -1868 -2553 3836 2663 3182
2.0859 -46 -987 -2297 2885 452 1260 193 -131
2.0801 1799 -396 634 2505 -768 519 -1356 2184
2.0742 -1855 -1019 300 487 -1139 -1319 -2025 502
2.0684 -1134 -915 -154 -585 -350 -1280 -2209 -247
2.0625 797 -981 -2002 -507 416 -1218 -2202 2101
2.0566 2594 -585 -1350 161 118 1011 631 1446
2.0508 1259 1752 -945 -2381 -2759 -2251 -654 1734
2.0449 -1379 577 -1401 955 948 531 -1417 -239
2.0391 -1592 -1977 1390 -932 2267 -1699 -1124 -136
2.0332 -570 972 677 24 -1308 -654 3023 798
2.0273 78 1046 84 -1223 -652 2281 915 -422
2.0215 771 1678 1633 883 -526 1581 2184 -2457
2.0156 -1214 -2039 -2056 -756 -1687 570 -205 760
2.0098 930 -245 13 562 -765 -1990 -1538 -2963
2.0039 -1499 778 -2162 1081 -122 -707 -1979 738
1.9980 -1107 606 -1032 1704 3051 -598 -1204 -988
1.9922 -177 1637 69 -871 -1426 -1078 307 -164
1.9863 2396 19 -1465 48 -1240 -13 299 -662
1.9805 481 -1136 1670 -1691 2030 -296 -1174 -268
1.9746 -1081 -667 -598 1339 1358 -49 1358 132
1.9688 -3426 -48 -417 1061 -1758 3524 308 336
1.9629 -1099 89 324 -504 1289 1728 -680 -349
1.9570 -794 -2005 1539 1912 935 3290 615 543
1.9512 571 -217 1406 1209 685 82 1024 763
1.9453 286 -574 1987 -3278 924 1434 -473 620
1.9395 -162 -800 -3140 -244 -1593 1335 1457 -2562
1.9336 -2837 1850 887 1146 -3141 492 -124 1497
1.9277 1426 -5054 3057 -1332 486 -1114 -320 -2883
1.9219 291 -148 367 -844 -817 -477 -1321 -1389
1.9160 -1038 -1629 561 -1609 1793 -178 151 -2215
1.9102 18 2012 -1703 1958 -1202 -853 -940 1448
1.9043 2309 2671 1845 823 -1716 -353 -1974 -367
1.8984 431 2976 -384 -3086 -1671 690 1741 -2740
1.8926 -1080 -183 -1448 201 -1087 3166 -1513 -796
1.8867 1100 410 919 -697 2376 -1551 -1484 -239
1.8809 582 2842 687 18 -674 -141 -1364 1834
1.8750 1195 -730 1697 -356 -795 -273 -1181 -1078
1.8691 -1310 -886 822 -776 1046 1233 279 -415
1.8633 423 -686 826 1643 -1346 -1833 1000 -2953
1.8574 -1148 967 -1657 -839 -623 -1306 -269 -1317
1.8516 1432 1871 -578 -2908 -1222 -937 -936 -1952
1.8457 -29 -202 1185 924 2064 -93 164 526
1.8398 616 1662 527 461 412 1264 2156 -513
1.8340 -1262 -67 -2566 285 -351 -755 -3047 1158
1.8281 -2623 2663 -992 -644 592 538 -2773 -999
1.8223 1151 -1225 -1637 -771 633 1297 2659 -988
1.8164 -566 735 -19 -4493 -951 -1588 -663 61
1.8105 -1138 549 2656 -938 -1110 -57 1083 -1430
1.8047 -492 14 -487 4466 1620 38 449 -13
1.7988 -106 739 -85 -1694 617 -1042 -1054 -1572
1.7930 1052 -2620 -547 -69 -1613 90 -1460 -429
1.7871 1541 -2323 3361 -828 -396 226 1518 42
1.7812 917 166 1140 -1973 1269 -1965 -915 252
1.7754 -1244 -1389 -1819 -744 -1882 241 -737 -183
1.7695 -138 -1853 -2792 -1412 -690 -1391 -1293 -697
1.7637 -2025 -354 908 -1054 635 -2653 -640 263
1.7578 1758 -364 -2621 -2708 -483 2119 -769 -2086
1.7520 -93 1543 119 -544 1380 -1256 1413 -980
1.7461 -1638 -993 -450 400 -2129 597 -626 -1416
1.7402 923 -696 332 -1374 -300 -1505 2071 -2226
1.7344 618 1122 -905 98 -3880 1895 -171 -1064
1.7285 677 -172 -1310 1466 -1269 1785 -1200 -2269
1.7227 -1456 378 -1352 23 -150 1225 -1708 -1931
1.7168 1043 -525 -1166 -1063 -5294 1018 447 1803
1.7109 -2276 -972 -407 904 275 2154 362 -423
1.7051 1 -2512 -898 272 2141 280 511 -1056
1.6992 569 -2416 469 -3796 73 -126 1077 1300
1.6934 31 567 -1061 2674 -2156 2077 -770 971
1.6875 -484 231 496 -2739 -2961 -779 -1497 -1046
1.6816 118 -1402 -1509 -140 -381 -664 -660 -3881
1.6758 4260 1302 -1368 -1584 1576 307 -1423 1289
1.6699 -1699 836 -1377 -593 -943 -2482 -1331 1587
1.6641 -302 151 1636 5806 1628 -1787 796 -489
1.6582 -116 -145 -1759 937 -608 1032 2952 1453
1.6523 689 -1260 1318 1412 543 -216 -2681 2558
1.6465 -1594 -1350 75 217 2577 31 -1459 -2129
1.6406 289 864 -230 -1310 1303 2143 -558 1723
1.6348 609 89 290 -1697 1809 -2533 -1387 348
1.6289 2027 782 2678 -308 823 938 1725 -694
1.6230 -1032 -545 -897 -1200 -131 65 -1315 -3096
1.6172 -1260 201 -520 937 1639 -1428 -3162 -2350
1.6113 -1042 -832 574 265 540 -776 -1395 -689
1.6055 -3166 -1124 948 1917 1500 1159 95 574
1.5996 -54 -310 -2121 -66 1050 793 -410 -954
1.5938 -19 -12 -110 3824 -28 689 2395 789
1.5879 -99 66 1389 1147 839 -933 -949 36
1.5820 -3074 3569 463 1201 -917 438 144 2208
1.5762 -755 451 -402 2855 -408 1320 -2800 2529
1.5703 582 -1891 2016 -384 -1014 -726 189 1345
1.5645 251 -838 1603 1000 -195 1145 -3093 503
1.5586 1116 2312 -214 -2215 -230 168 59 -1676
1.5527 3049 2498 3441 -47 -14 938 723 1075
1.5469 1059 -2060 665 648 -1531 303 399 -1535
1.5410 2593 1007 -66 1336 -176 2457 1189 789
1.5352 859 1655 1422 173 288 291 -1119 -263
1.5293 2333 1067 -1110 711 2108 -283 -2226 2252
1.5234 -1037 1225 -3142 -956 -1566 512 2119 -612
1.5176 -117 -790 -580 -695 -1330 200 -107 -236
1.5117 1576 -1891 -2693 881 1855 -926 1280 -1979
1.5059 -494 -440 23 -974 -301 -1099 938 -734
1.5000 699 215 2328 182 -2041 -3127 -2559 -322
1.4941 487 -822 1295 929 60 1357 217 1810
1.4883 468 -1030 -1510 -1450 -343 -921 1056 -1252
1.4824 -35 378 -937 -1437 2504 297 -1683 2340
1.4766 748 687 -112 1537 3266 234 653 92
1.4707 1786 -112 592 1334 -405 -982 -1655 129
1.4648 3658 2755 -2393 -3834 -2724 -2153 448 31
1.4590 740 1565 4433 -364 -221 -722 -2893 873
1.4531 2702 1429 707 -70 -206 -1100 -2101 -1007
1.4473 978 2610 28 1037 1422 37 -1937 -543
1.4414 210 -2331 -459 2915 -328 -1135 -1356 106
1.4355 -2309 -110 2646 1714 340 18 2702 -503
1.4297 -1709 -2924 -2092 -3256 -679 128 996 -589
1.4238 -1309 259 -2184 1977 -601 -953 -1756 65
1.4180 1160 -631 403 403 752 -1589 -42 4406
1.4121 1219 -67 78 -2108 2215 -199 326 -1331
1.4062 3152 -2631 -2404 -1179 -1058 -779 -2326 -1820
1.4004 -1789 -3188 -471 -290 99 -393 -425 -1288
1.3945 538 -22 435 -2035 -694 1439 80 1408
1.3887 131 2078 3456 -1927 -2631 -3518 3525 -776
1.3828 -2722 -106 -43 -218 1312 -953 -950 464
1.3770 245 -1780 -962 -590 659 -558 259 -823
1.3711 -600 928 1233 2522 -102 716 178 -2104
1.3652 2564 -710 2012 274 979 1303 1221 -54
1.3594 -2046 -778 -991 514 897 2149 391 -910
1.3535 2129 163 -1878 -1160 2252 3205 1046 -1507
1.3477 1917 -1232 42 -702 -482 -59 1001 1274
1.3418 1157 -1087 734 -102 -535 412 -606 968
1.3359 -317 238 1942 -1569 655 221 2203 1365
1.3301 -1796 805 -2549 1281 -2114 713 601 -314
1.3242 2429 2414 -217 -1067 -131 226 989 1356
1.3184 -1775 1372 -509 -1781 1694 -643 -317 2029
1.3125 -2413 891 -1768 -966 1934 1964 1370 -465
1.3066 1068 -1108 -3284 -676 -581 780 -730 283
1.3008 -316 566 -787 2160 -1200 3186 745 1497
1.2949 385 3089 16 -338 -333 315 2823 1010
1.2891 -4388 1820 328 -2362 -305 -1258 3 632
1.2832 261 3691 964 -595 72 87 884 131
1.2773 3105 -141 -553 -436 -1435 1546 1821 763
1.2715 1352 -1912 386 -2824 11 284 -1183 4413
1.2656 967 1152 1811 1422 -2328 296 1039 -118
1.2598 737 545 -18 835 283 1068 -526 249
1.2539 2324 -1452 -385 -1795 -1033 -750 2459 1744
1.2480 358 -1916 -1082 -961 2156 -407 -1791 1273
1.2422 -1711 -1994 -4851 -462 585 -314 439 2347
1.2363 -732 613 -127 -1361 1037 -533 1744 1159
1.2305 736 -734 2153 -905 -2292 226 -397 -1993
1.2246 -1979 -1516 513 -133 624 -2125 -1828 1485
1.2188 2130 1047 -162 229 -1351 -1979 565 2629
1.2129 -1036 1446 -944 3253 -500 -1870 -264 204
1.2070 -1989 -2112 4505 -817 -2509 -519 -1742 2057
1.2012 -1641 1368 1930 1071 -1075 48 -63 1030
1.1953 1330 -954 -4534 593 -846 2220 422 252
1.1895 -547 298 -2329 175 1336 -389 -593 -2723
1.1836 -1471 796 -2699 -245 452 -1578 -1785 2402
1.1777 -272 -2850 -215 2569 -755 -310 2264 -302
1.1719 986 2539 552 317 8 -493 851 -568
1.1660 -1226 478 884 -494 -2490 890 551 -18
1.1602 25 639 -2791 -755 576 -2874 -1022 616
1.1543 151 -3411 1099 1012 -1520 -1382 -2847 868
1.1484 -202 262 -1473 1399 -283 1388 156 1305
1.1426 756 783 1375 -1643 1317 -1839 -2751 633
1.1367 -2150 419 285 2269 -1121 -93 808 -1433
1.1309 -2186 -687 2201 -1660 -1331 1093 1687 125
1.1250 -4571 1023 -1407 -744 1170 817 -1035 -718
1.1191 973 -1679 -65 -1182 -1303 58 -768 -1936
1.1133 -985 46 69 -1514 -119 2002 432 -502
1.1074 -1396 -297 -421 1613 -299 -134 2169 -1735
1.1016 56 -287 -830 411 -685 -766 2 -939
1.0957 851 2308 -191 2497 -30 -240 -753 -263
1.0898 992 -1774 33 397 -1398 1372 -627 1649
1.0840 333 -1800 1320 -802 2128 -515 1463 942
1.0781 -96 935 1594 1465 -897 -1098 -2925 1765
1.0723 1067 678 842 3969 1241 -836 -19 912
1.0664 1304 -1018 1321 -801 -351 -1905 -1078 -1784
1.0605 -1205 1679 -262 -4535 -969 1745 28 -1113
1.0547 -1428 -838 -1830 -1174 -1844 -2714 252 115
1.0488 1418 -1593 292 -2456 1493 335 -1635 1627
1.0430 1294 2252 -1156 -962 599 1217 293 862
1.0371 -679 667 558 1562 -395 1530 31 1486
1.0312 -1536 1454 425 -2327 2644 -3822 -646 1572
1.0254 -1830 -1678 47 1159 1021 1497 -982 751
1.0195 558 -21 -937 -167 -248 -2454 952 371
1.0137 1384 765 -1889 -1137 523 -349 202 1354
1.0078 -671 -1242 737 -46 1381 3279 -1183 354
1.0020 -68 1174 -134 -1247 248 125 1084 1081
0.9961 2624 -1935 529 -1172 1756 1585 1405 -331
0.9902 988 -748 1328 1280 -680 -389 -912 -324
0.9844 -19 2176 -394 -2630 78 -1123 1034 3207
0.9785 157 -2087 1074 -919 1461 883 -1572 1087
0.9727 968 -301 1159 -1435 -2125 76 -538 140
0.9668 -1776 827 851 -1032 -667 555 -1713 372
0.9609 2035 137 -1704 2013 -334 53 215 623
0.9551 729 828 766 -1656 -477 631 1073 1436
0.9492 -912 -631 2637 -1014 437 664 2740 -1834
0.9434 -27 -406 526 979 1047 -209 2551 -770
0.9375 -727 -1912 2856 1287 1170 -1290 1795 1196
0.9316 433 -573 1687 580 1412 -232 248 1852
0.9258 1933 -909 -2372 1138 1091 -1412 950 523
0.9199 939 -1317 -2191 441 717 668 35 -129
0.9141 -1422 -3409 -430 -1253 -894 2016 1795 -3339
0.9082 692 -949 -1091 3993 -2886 635 560 694
0.9023 308 851 -329 2002 -528 -1890 -502 -1923
0.8965 -605 1262 830 -1873 -1015 -820 40 -2353
0.8906 2547 383 -3248 591 -300 -2291 -1223 -918
0.8848 1127 -1681 725 1788 848 -1812 -787 -1802
0.8789 479 2051 -1203 1572 -325 409 2320 -948
0.8730 -2413 517 489 -2183 618 -198 918 3333
0.8672 -629 1196 1967 319 409 -3244 3357 -946
0.8613 -1963 2410 1638 2836 -588 -670 -164 683
0.8555 -888 1027 1070 1752 -420 -201 -298 -1365
0.8496 -678 -2435 -181 -1266 -270 1685 1671 -2854
0.8438 -2348 -1094 1078 -567 436 -1660 164 130
0.8379 -31 -893 2406 261 182 -1417 1015 -451
0.8320 -1164 -1837 1103 -2964 1526 -1458 -1963 -1233
0.8262 575 -1196 -1173 -2073 -612 -981 -574 -162
0.8203 -357 -213 1965 2160 -636 -52 -596 1482
0.8145 -272 726 2815 -376 3519 -1853 -957 -225
0.8086 -2771 -240 -1293 -1189 -721 57 -1692 -27
0.8027 -2018 -125 -700 -1139 1393 970 -687 -3233
0.7969 1688 496 -1076 299 -779 720 -1219 -2656
0.7910 -2622 -700 3590 1019 1701 1432 -1610 320
0.7852 174 1480 -1375 1655 1221 -1521 2668 280
0.7793 -348 -258 -1450 -713 -167 1041 -1608 1695
0.7734 1846 -2636 3202 2406 72 1715 304 2762
0.7676 1078 -1665 -82 -373 -2273 199 638 -265
0.7617 2929 1369 -1094 175 702 -1425 -35 -351
0.7559 1549 687 1608 212 3603 -2153 -2297 55
0.7500 526 635 750 1838 1792 -1114 -1805 -374
0.7441 -1454 1171 902 2606 240 1214 1498 -3537
0.7383 -3267 509 -1106 3376 4261 -1031 -471 -2060
0.7324 -2038 537 712 -1407 -2709 751 287 915
0.7266 329 1344 412 1492 831 -2306 500 -1467
0.7207 233 -1047 192 -614 -2147 -84 -189 938
0.7148 -3440 -503 -3942 758 358 -1519 -133 -1206
0.7090 -843 -779 399 -307 413 -2753 -931 -1139
0.7031 -632 911 -272 1470 275 -5 1969 -930
0.6973 -1677 86 -1246 976 123 2518 67 -503
0.6914 -935 12 -1197 -1949 832 -1024 64 -1666
0.6855 346 1127 23 -886 -1041 1141 2106 22
0.6797 1314 -890 -3196 1063 1441 510 -257 4349
0.6738 -85 187 352 2341 -2347 -748 -2289 -2669
0.6680 -1832 -2054 677 -476 1082 -620 -2153 -965
0.6621 -1922 234 931 635 1251 1386 -1491 -695
0.6562 304 1000 -954 -202 -876 2098 404 282
0.6504 -929 -1196 -4107 2153 1446 362 622 -77
0.6445 867 -810 151 215 -1188 2195 -2869 -740
0.6387 444 -858 2128 -1357 717 -444 -623 792
0.6328 -256 -146 -2345 -1410 2150 -1792 -251 -37
0.6270 -117 700 1764 -357 1693 1195 -2007 -699
0.6211 -1339 1295 3326 893 1618 -952 949 727
0.6152 -1468 -129 -2391 1897 -985 -15 564 48
0.6094 -277 2522 -954 -898 -104 -3218 -114 -681
0.6035 -841 -168 260 2497 330 -23 -935 369
0.5977 -2724 -1980 1504 272 1640 -1570 2950 1367
0.5918 -925 -2087 -1779 12 867 619 454 714
0.5859 -1770 2204 2736 -3421 -640 -744 1451 1074
0.5801 234 -2330 -1503 -1149 151 -193 -1111 1484
0.5742 975 2092 -484 770 610 2748 1465 688
0.5684 351 2674 2020 1106 378 1611 2247 -1823
0.5625 182 -3063 1045 -1438 -198 -442 1839 -2687
0.5566 -1266 70 605 -438 2832 -3829 -1330 -729
0.5508 1046 -505 -848 -589 1195 -2007 189 -2253
0.5449 -1175 -86 3186 -408 -1167 87 3914 688
0.5391 525 -225 -1199 191 2134 -3811 974 -1747
0.5332 58 1921 453 1737 -145 350 -331 -1042
0.5273 87 1884 -709 -1431 -499 -1544 -2745 -1239
0.5215 4033 574 -555 2265 -59 1077 -1823 -2626
0.5156 1813 -282 -56 647 -330 2986 -1398 695
0.5098 1410 -968 994 -1915 1025 1512 1517 -1944
0.5039 -670 726 -150 -734 -986 1790 1329 -637
0.4980 2269 -383 945 3240 -1431 -196 749 -591
0.4922 -516 330 -1785 -361 2660 -146 -531 3047
0.4863 400 -427 217 860 397 -2323 17 2351
0.4805 725 2071 -1317 -687 -319 -288 1141 1269
0.4746 782 -1364 -1873 -1573 -321 -2651 -249 -100
0.4688 949 1225 -1955 -530 899 260 140 1788
0.4629 -21 1564 70 -661 -1482 2245 1040 924
0.4570 -3673 3476 2127 -234 -556 41 150 -346
0.4512 378 312 -124 -2026 641 -657 -1543 1764
0.4453 -1291 -90 -1692 -985 1021 -540 -1276 1453
0.4395 -1128 792 -838 -252 -493 -1370 937 -584
0.4336 1792 -584 -655 -1799 128 959 -484 469
0.4277 2041 -595 -2796 241 -576 -1538 592 904
0.4219 1886 -1735 552 1305 -1633 1294 -1303 1450
0.4160 -227 1576 -1929 166 -947 -731 74 132
0.4102 -1219 -1583 127 -1732 806 -564 2323 1960
0.4043 1083 264 319 -130 -1277 -1173 -1621 4013
0.3984 42 -966 -479 -1556 980 17 -3019 -1064
0.3926 1381 -1434 1471 906 -670 -106 -931 -1173
0.3867 -111 -645 -813 -442 -329 2224 -2661 529
0.3809 -1774 -2402 1278 2115 935 -2375 2616 2
0.3750 -90 -176 -244 93 -2238 -1411 1605 295
0.3691 1031 -1629 -1066 -1594 -1151 -370 -2513 -1449
0.3633 -1494 -1924 -622 -1078 -1033 2638 -2385 -253
0.3574 -1349 -199 -36 -257 2257 -377 -67 529
0.3516 1224 1100 -282 49 -2188 -796 759 -1242
0.3457 -273 201 -2187 -1299 -1239 519 1843 3086
0.3398 1613 -1982 1205 -468 -449 -2686 2790 2355
0.3340 -955 716 -509 -1023 895 603 111 -880
0.3281 159 -381 302 1640 -4299 -218 -2185 1168
0.3223 -862 -983 2750 -253 -1057 873 -182 553
0.3164 -1278 900 1769 1406 448 233 880 923
0.3105 213 346 649 -1051 -3588 146 245 1820
0.3047 -1053 1254 590 -852 -2432 942 2105 -1599
0.2988 1774 50 102 917 -808 -3336 -1395 2605
0.2930 301 -3834 -1957 -623 909 -928 -440 1163
0.2871 -470 -19 -2787 970 2645 -956 1563 -1450
0.2812 2689 281 -3103 1120 -1497 3234 563 2683
0.2754 -533 277 -257 -743 -518 103 1884 -610
0.2695 1882 762 -65 -524 739 357 -2711 -1356
0.2637 -1018 -1936 1383 1062 -718 -775 1169 820
0.2578 -1439 1148 -977 612 -6 -567 -544 295
0.2520 628 256 1097 1779 -92 4159 1734 440
0.2461 922 3895 613 1642 -772 -267 -1630 -1243
0.2402 1467 861 -788 4279 -819 -1662 1965 -1182
0.2344 -1826 -1708 1418 504 197 -1508 -502 -680
0.2285 2219 -2104 3073 1495 -2432 1281 153 3986
0.2227 1103 -408 1717 -870 -2654 -259 -966 2957
0.2168 -1320 -807 729 -2135 -251 2370 768 1366
0.2109 436 1073 -434 -3649 651 842 -484 307
0.2051 203 1329 -299 1371 3205 365 -1648 -661
0.1992 1805 -1218 -745 -921 -2850 380 -1879 -2313
0.1934 -4297 91 -1272 -759 -1722 2326 1557 1193
0.1875 1039 233 -2420 1456 -1081 -1349 272 -1165
0.1816 -1913 -1433 2055 2575 -3 -1094 510 42
0.1758 2595 776 852 -636 3050 -270 -1041 -1801
0.1699 -1902 338 -2880 -1837 -589 -1437 1698 233
0.1641 -1818 1047 -181 163 -5086 -528 -746 1747
0.1582 290 -810 -3750 -358 1196 -90 587 -42
0.1523 1791 1140 -1856 -1322 -845 -251 2689 -1920
0.1465 328 1437 1591 1281 -2478 -1995 1117 -997
0.1406 -2408 -951 -207 -3294 698 -582 -667 -730
0.1348 988 1381 -2133 -864 1651 -166 621 -1693
0.1289 -1352 3002 -406 1458 -2706 1639 1356 1276
0.1230 2211 1575 851 -2064 -892 -731 -2262 750
0.1172 -266 345 -1596 416 -175 1546 -1117 315
0.1113 -3025 776 -1 957 -252 -2188 -652 7
0.1055 -3039 -2293 -1753 1155 3205 -145 959 161
0.0996 981 1865 -2573 -622 -1237 1218 -752 906
0.0938 1092 -739 -464 -869 331 2030 1626 1412
0.0879 -3433 -2751 -2044 -1360 541 228 4032 -777
0.0820 -581 -191 -4204 357 655 1120 885 -584
0.0762 1101 1054 -1291 -1248 -3592 -658 -572 2445
0.0703 19 -664 -810 -126 -4401 -1594 229 1462
0.0645 707 355 -1115 -1769 -2952 22 124 19
0.0586 -874 -480 -433 -355 -411 -1320 -2043 761
0.0527 603 1632 1107 -163 -2059 328 1446 15
0.0469 1775 1347 156 261 -1231 -216 -996 -1462
0.0410 285 3006 -149 2510 500 -582 2922 970
0.0352 159 -700 665 5025 125 2799 1012 967
0.0293 -738 -15 -1879 -499 -899 1276 -1955 -541
0.0234 1512 -1185 1419 -2966 -1454 -630 -261 -507
0.0176 1400 654 969 2299 -1331 -1418 415 -627
0.0117 2091 -1440 -314 -1281 568 969 -1309 2336
0.0059 302 -816 3768 -1254 -134 -2453 452 -682
##END=
